 C Si                                   
   1.00000000000000     
     8.7433155800000009    0.0000000000000000    0.0000000000000000
     0.0000000000000000    8.7433155800000009    0.0000000000000000
     0.0000000000000000    0.0000000000000000    8.7433155800000009
   C    Si
    32    32
Direct
  0.1260171689737035  0.1270311358822767  0.1250236261318918
  0.1234593908334318  0.3786656361069092  0.3781426136622628
  0.3744468639768641  0.1229056943759659  0.3751454703220745
  0.3760784676245450  0.3812763604282949  0.1239465102737327
  0.1275563692485306  0.1249394330552676  0.6211337145034719
  0.1268874344517812  0.3662384974009427  0.8771681469544177
  0.3709960301198194  0.1209542376243107  0.8730749429506943
  0.3705449053887904  0.3747750410967186  0.6268374884372321
  0.1108957720827419  0.6196925488024974  0.1223708911039836
  0.1261025934446423  0.8804359041357799  0.3726261068782364
  0.3717974810472953  0.6238051770374540  0.3786188160743862
  0.3759903536777145  0.8718351893627485  0.1216349085026422
  0.1251725002041510  0.6172879423759881  0.6259118853608854
  0.1285264639789574  0.8738953229933770  0.8776023835167948
  0.3783856710315092  0.6310559823013406  0.8732111693442803
  0.3700277863525585  0.8749311316508326  0.6267801800842463
  0.6259527576844519  0.1254220223864095  0.1243620756574657
  0.6250434869577717  0.3713886372292450  0.3795915004026611
  0.8737037139374806  0.1263021850177211  0.3750295523955600
  0.8844794961738103  0.3728194144962842  0.1258959809509363
  0.6130552927567265  0.1317395669399275  0.6162284691132385
  0.6209365944846539  0.3771598028950578  0.8693156044649371
  0.8777380154895695  0.1197956731265961  0.8642804401016377
  0.8727153162732009  0.3769075716581654  0.6267798916430678
  0.6292078189374308  0.6260091580998193  0.1330277362489412
  0.6240023719301035  0.8755237427446261  0.3771160139226382
  0.8755754695069129  0.6183217248190687  0.3694201796381975
  0.8752827447546920  0.8790093520334850  0.1213832611789982
  0.6274739580699986  0.6263545393651810  0.6357006441828617
  0.6300743383001048  0.8745749075871387  0.8799545827117470
  0.8690850849704645  0.6225171359123820  0.8860218142255292
  0.8756244395697195  0.8751761104761897  0.6287681450975526
  0.9991177923555199  0.9998108442572118  0.9991860410505424
  0.0064989981765677  0.2429838748688695  0.2529689892418290
  0.2484716051655624  0.9983256115619525  0.2504740634221676
  0.2527985243827331  0.2523009774134053  0.0010546962536111
  0.0025763456692616  0.9929779281391333  0.5034550893167093
  0.0031471168622303  0.2560242753311712  0.7482388632897994
  0.2379993568189178  0.9981282307536716  0.7518436991931310
  0.2507649049452567  0.2504383032731710  0.5018523284918786
  0.0065972294228800  0.4976580858325548  0.9984904563324264
  0.9987144839750357  0.7467314461648442  0.2566972183706753
  0.2514478276023198  0.4990244944688413  0.2444888216494903
  0.2426456046506189  0.7552941111286131  0.9955521602711315
  0.9928341778804679  0.5126729195005737  0.5027915843319946
  0.0083889965362545  0.7532737753959964  0.7527591622859759
  0.2552595449021098  0.5018998979936384  0.7446308567077793
  0.2462428572046775  0.7524060058766935  0.4989669438288260
  0.4982699507934711  0.9962227330023694  0.9968783115534592
  0.5060271065734412  0.2498725231187322  0.2448362546910730
  0.7444282133703553  0.0070214579522485  0.2549501789386071
  0.7541527936624490  0.2478276307690450  0.0006502712299294
  0.4968930057869443  0.9972748226272685  0.5064268816000421
  0.5009187407053162  0.2453573220634766  0.7529969564758048
  0.7410123574582954  0.9944817490934241  0.7427778959033802
  0.7491484134167337  0.2460429332736496  0.5038959710446491
  0.4975281738629320  0.4912435477010249  0.0002214072223836
  0.5061962684318857  0.7585919052585766  0.2496809612187008
  0.7508421821568376  0.4965965775172094  0.2481983241477650
  0.7448376853975915  0.7646638487919475  0.9987587945860668
  0.4864360686624352  0.4826277977412374  0.4930781325004432
  0.4921867985243651  0.7483975198281954  0.7569521090924383
  0.7447079376948125  0.5038761383124566  0.7482883825710971
  0.7454739785896578  0.7563320318254156  0.5009184224800833
 
  0.00000000E+00  0.00000000E+00  0.00000000E+00
  0.00000000E+00  0.00000000E+00  0.00000000E+00
  0.00000000E+00  0.00000000E+00  0.00000000E+00
  0.00000000E+00  0.00000000E+00  0.00000000E+00
  0.00000000E+00  0.00000000E+00  0.00000000E+00
  0.00000000E+00  0.00000000E+00  0.00000000E+00
  0.00000000E+00  0.00000000E+00  0.00000000E+00
  0.00000000E+00  0.00000000E+00  0.00000000E+00
  0.00000000E+00  0.00000000E+00  0.00000000E+00
  0.00000000E+00  0.00000000E+00  0.00000000E+00
  0.00000000E+00  0.00000000E+00  0.00000000E+00
  0.00000000E+00  0.00000000E+00  0.00000000E+00
  0.00000000E+00  0.00000000E+00  0.00000000E+00
  0.00000000E+00  0.00000000E+00  0.00000000E+00
  0.00000000E+00  0.00000000E+00  0.00000000E+00
  0.00000000E+00  0.00000000E+00  0.00000000E+00
  0.00000000E+00  0.00000000E+00  0.00000000E+00
  0.00000000E+00  0.00000000E+00  0.00000000E+00
  0.00000000E+00  0.00000000E+00  0.00000000E+00
  0.00000000E+00  0.00000000E+00  0.00000000E+00
  0.00000000E+00  0.00000000E+00  0.00000000E+00
  0.00000000E+00  0.00000000E+00  0.00000000E+00
  0.00000000E+00  0.00000000E+00  0.00000000E+00
  0.00000000E+00  0.00000000E+00  0.00000000E+00
  0.00000000E+00  0.00000000E+00  0.00000000E+00
  0.00000000E+00  0.00000000E+00  0.00000000E+00
  0.00000000E+00  0.00000000E+00  0.00000000E+00
  0.00000000E+00  0.00000000E+00  0.00000000E+00
  0.00000000E+00  0.00000000E+00  0.00000000E+00
  0.00000000E+00  0.00000000E+00  0.00000000E+00
  0.00000000E+00  0.00000000E+00  0.00000000E+00
  0.00000000E+00  0.00000000E+00  0.00000000E+00
  0.00000000E+00  0.00000000E+00  0.00000000E+00
  0.00000000E+00  0.00000000E+00  0.00000000E+00
  0.00000000E+00  0.00000000E+00  0.00000000E+00
  0.00000000E+00  0.00000000E+00  0.00000000E+00
  0.00000000E+00  0.00000000E+00  0.00000000E+00
  0.00000000E+00  0.00000000E+00  0.00000000E+00
  0.00000000E+00  0.00000000E+00  0.00000000E+00
  0.00000000E+00  0.00000000E+00  0.00000000E+00
  0.00000000E+00  0.00000000E+00  0.00000000E+00
  0.00000000E+00  0.00000000E+00  0.00000000E+00
  0.00000000E+00  0.00000000E+00  0.00000000E+00
  0.00000000E+00  0.00000000E+00  0.00000000E+00
  0.00000000E+00  0.00000000E+00  0.00000000E+00
  0.00000000E+00  0.00000000E+00  0.00000000E+00
  0.00000000E+00  0.00000000E+00  0.00000000E+00
  0.00000000E+00  0.00000000E+00  0.00000000E+00
  0.00000000E+00  0.00000000E+00  0.00000000E+00
  0.00000000E+00  0.00000000E+00  0.00000000E+00
  0.00000000E+00  0.00000000E+00  0.00000000E+00
  0.00000000E+00  0.00000000E+00  0.00000000E+00
  0.00000000E+00  0.00000000E+00  0.00000000E+00
  0.00000000E+00  0.00000000E+00  0.00000000E+00
  0.00000000E+00  0.00000000E+00  0.00000000E+00
  0.00000000E+00  0.00000000E+00  0.00000000E+00
  0.00000000E+00  0.00000000E+00  0.00000000E+00
  0.00000000E+00  0.00000000E+00  0.00000000E+00
  0.00000000E+00  0.00000000E+00  0.00000000E+00
  0.00000000E+00  0.00000000E+00  0.00000000E+00
  0.00000000E+00  0.00000000E+00  0.00000000E+00
  0.00000000E+00  0.00000000E+00  0.00000000E+00
  0.00000000E+00  0.00000000E+00  0.00000000E+00
  0.00000000E+00  0.00000000E+00  0.00000000E+00
