 C Si 
 1.0000000000000000
     8.7433155800000009    0.0000000000000000    0.0000000000000000
     0.0000000000000000    8.7433155800000009    0.0000000000000000
     0.0000000000000000    0.0000000000000000    8.7433155800000009
 C   Si 
  32  32
Cartesian
  1.1018078768352826  1.1106733095046162  1.0931210182270699
  1.0794444153712714  3.3107931557841197  3.3062202054951748
  3.2739070996910837  1.0746032725081152  3.2800152354334458
  3.2881727252842001  3.3336195424184023  1.0837034543629740
  1.1152655905789017  1.0923848915884644  5.4307680832814587
  1.1094168825485029  3.2021387603214553  7.6693579255463007
  3.2437353702647593  1.0575410702876593  7.6335697512084026
  3.2397910443754618  3.2767764558160493  5.4806379787813082
  0.9695967318071673  5.4181675167547931  1.0699273187279403
  1.1025547699429528  7.6979289578217749  3.2579876457832460
  3.2507427086455438  5.4541255232762236  3.3103837934643074
  3.2874023172400633  7.6227301943475991  1.0634923905830460
  1.0944226712225189  5.3971432839221025  5.4725451389830271
  1.1237474349495347  7.6407425928171504  7.6731545928475233
  3.3083453327785253  5.5175216019075100  7.6347608215578351
  3.2352697094492515  7.6497989947897285  5.4801369137658069
  5.4729024986064347  1.0966043224061741  1.0873368736570710
  5.4649524576953974  3.2471680581214550  3.3188882795061585
  7.6390672943734224  1.1042998620534987  3.2790017284205053
  7.7332833590870012  3.2596777952918292  1.1007482917076756
  5.3601358925613773  1.1518406081283441  5.3878799748373494
  5.4290446007498350  3.2976271808020607  7.6007006684554312
  7.6743404659882630  1.0474113752643806  7.5566766374299243
  7.6304254216761223  3.2954218434987816  5.4801343918335501
  5.5013625263734358  5.4733956252368365  1.1631034789175256
  5.4558496604534472  7.6549803805990217  3.2972443199972981
  7.6554326440055798  5.4061819700630220  3.2299572121970384
  7.6528732591188415  7.6854561626000875  1.0612921586175590
  5.4862028336376980  5.4764154026352925  5.5581313465000628
  5.5089387786175044  7.6466844153836941  7.6937206127160334
  7.5986851637678940  5.4428637732397016  7.7467683325379175
  7.6558608047187180  7.6519409219702688  5.4975183192391484
 -0.0077134198427702 -0.0016538483529715 -0.0071166999642507
  0.0568227920115602  2.1244846988297708  2.2117877048949555
  2.1724656566316534 -0.0146397065173368  2.1899737811049440
  2.2102972768365565  2.2059470666678713  0.0092215421863666
  0.0225258032294958 -0.0613961903050237  4.4018667262530524
  0.0275162358936399  2.2385010353612240  6.5420885109632012
  2.0809034845048533 -0.0163654692136058  6.5736067288801250
  2.1925167003250516  2.1896611188370736  4.3878532825623182
  0.0576816587979017  4.3511816953727775 -0.0131984166673977
 -0.0112396722894034  6.5289086873289941  2.2443847887229964
  2.1984877086325092  4.3631286372910552  2.1376429234638308
  2.1215270955602650  6.6037747693130475 -0.0388888663987874
 -0.0626530441812379  4.4824611245134314  4.3960654927828378
  0.0733476441160086  6.5861103364252553  6.5816109116027395
  2.2318147558863344  4.3882691977281780  6.5105425708019045
  2.1529790098613768  6.5785231536672519  4.3626254538835738
  4.3565314238184003 -0.0330258373902131 -0.0272939072305358
  4.4243546848058584  2.1847143243979206  2.1406806401893217
  6.5087707961526204  0.0613908227081896  2.2291098716377165
  6.5937958705294371  2.1668351852574532  0.0056855265758951
  4.3444923590900482 -0.0238270857812950  4.4278500440244875
  4.3796906299227434  2.1452364966646842  6.5836900212474561
  6.4789048899376533 -0.0482478091258115  6.4943415497316224
  6.5500409947588354  2.1512310118403986  4.4057214943338794
  4.3500458340247414  4.2950973641888668  0.0019358332170072
  4.4258337203183702  6.6326084241092182  2.1830394382528349
  6.5648501493730551  4.3419005931809203  2.1700762744510316
  6.5123509393079120  6.6856973426053870 -0.0108522506335947
  4.2530640578102199  4.2197671433320334  4.3111377180484034
  4.3033445038083853  6.5434756951472224  6.6182711687417912
  6.5112165141967386  4.4055480904975486  6.5425214736669002
  6.5179142514875545  6.6128496375122188  4.3796878475791265
