 C Si                                   
   1.00000000000000     
     8.7433155800000009    0.0000000000000000    0.0000000000000000
     0.0000000000000000    8.7433155800000009    0.0000000000000000
     0.0000000000000000    0.0000000000000000    8.7433155800000009
   C    Si
    32    32
Direct
  0.1234160751019502  0.1226694490971525  0.1216158758874926
  0.1294136165134958  0.3770781812153174  0.3735165254222323
  0.3854040007052717  0.1307189361811538  0.3754744103532559
  0.3827373881358085  0.3814433531301304  0.1184531258922803
  0.1291681714952801  0.1218652110314977  0.6146456283081676
  0.1216542671066136  0.3828290250615041  0.8753329402845793
  0.3781409948806811  0.1340879870005409  0.8707383971915874
  0.3765083871882595  0.3773454378706163  0.6246312808595675
  0.1265189290012430  0.6247788335388620  0.1251636523236144
  0.1245187827510534  0.8787298825448531  0.3770605557523510
  0.3714627527016674  0.6207915922750615  0.3709927723272983
  0.3799431809609786  0.8781655308598175  0.1304578461548616
  0.1211307824208419  0.6301496205284352  0.6199709746360256
  0.1209399703894221  0.8745476500035352  0.8699356690492692
  0.3682288960783922  0.6270326289254768  0.8814025365697091
  0.3663651809130144  0.8760971791411478  0.6198560613895268
  0.6260617771257273  0.1269051387083877  0.1273397977312598
  0.6249489610164645  0.3724137113478818  0.3715206058851805
  0.8758988725917050  0.1162135789855938  0.3772920323804527
  0.8799301640703945  0.3689249972839974  0.1218632809799871
  0.6263819746588837  0.1281493161086118  0.6257239851166361
  0.6217871428232584  0.3773026475091683  0.8778740246455286
  0.8805807755957815  0.1243361344818794  0.8790698811918247
  0.8736354606136985  0.3756879662709736  0.6303502676842854
  0.6215595744260938  0.6302948147769527  0.1203040693957078
  0.6302837696798491  0.8752421927065726  0.3815666101811743
  0.8790924686655330  0.6292897664530486  0.3679879462964664
  0.8672777497493058  0.8702906402744404  0.1172727665753186
  0.6252213098308061  0.6348383181865387  0.6179308765147482
  0.6258106802116430  0.8758908288553471  0.8829266981717581
  0.8752800263383236  0.6285817064134704  0.8757358051228508
  0.8710641438123190  0.8790492574025492  0.6266759159788791
  0.9986990238859406  0.0006382402463672  0.9983461285457622
  0.0020843057721294  0.2503948271117054  0.2513394763641870
  0.2518553009991749  0.9986241887839213  0.2437280211202975
  0.2477329444729008  0.2470488709741545  0.0071793443243777
  0.0015466138355436  0.9956755904531320  0.4981061586332558
  0.9997049269440126  0.2594465975097009  0.7522657288432484
  0.2451100494409388  0.9988669518388988  0.7551057431109101
  0.2489375674173502  0.2435559695166063  0.5020763706878455
  0.9972520722461695  0.5040403958749593  0.0080111136950265
  0.0010399598838049  0.7523090222365596  0.2478594168823420
  0.2460637714385143  0.4962239902423136  0.2555357644545921
  0.2563346050025999  0.7509920297467829  0.9956469292455239
  0.9995249713048153  0.4987387799306191  0.4968873309434585
  0.0118190616495610  0.7547413970943566  0.7469853300710128
  0.2503806765324015  0.4980400190149652  0.7462849568630858
  0.2516917606614086  0.7436745174849335  0.4985634882672230
  0.5090864427815305  0.0163627108137803  0.0044038841142893
  0.5014017089626606  0.2431465528930730  0.2515265011572225
  0.7490376386362527  0.0055179930008080  0.2561310412816553
  0.7496504530277193  0.2468987335958985  0.9883354620737137
  0.5031213673347352  0.9975146139187956  0.5020377454493001
  0.4936857681240809  0.2405665769223830  0.7479712834760974
  0.7468679255123902  0.0046065550621677  0.7533488038752267
  0.7464701876541540  0.2410690961173074  0.5097713699942403
  0.4973620220749879  0.4893600053232774  0.9965034326910498
  0.5018906545756252  0.7533124532808628  0.2469443205310213
  0.7461641155218643  0.4889095016857894  0.2511962379909178
  0.7521548192207206  0.7498603550658558  0.9963655397449287
  0.5132169996459552  0.4965390275456230  0.5001277879713300
  0.4991886460173944  0.7597071200089189  0.7513436604725712
  0.7503329665686920  0.5031330897287205  0.7518847066014303
  0.7466170593843984  0.7475291515467219  0.5043109954112381
 
  0.00000000E+00  0.00000000E+00  0.00000000E+00
  0.00000000E+00  0.00000000E+00  0.00000000E+00
  0.00000000E+00  0.00000000E+00  0.00000000E+00
  0.00000000E+00  0.00000000E+00  0.00000000E+00
  0.00000000E+00  0.00000000E+00  0.00000000E+00
  0.00000000E+00  0.00000000E+00  0.00000000E+00
  0.00000000E+00  0.00000000E+00  0.00000000E+00
  0.00000000E+00  0.00000000E+00  0.00000000E+00
  0.00000000E+00  0.00000000E+00  0.00000000E+00
  0.00000000E+00  0.00000000E+00  0.00000000E+00
  0.00000000E+00  0.00000000E+00  0.00000000E+00
  0.00000000E+00  0.00000000E+00  0.00000000E+00
  0.00000000E+00  0.00000000E+00  0.00000000E+00
  0.00000000E+00  0.00000000E+00  0.00000000E+00
  0.00000000E+00  0.00000000E+00  0.00000000E+00
  0.00000000E+00  0.00000000E+00  0.00000000E+00
  0.00000000E+00  0.00000000E+00  0.00000000E+00
  0.00000000E+00  0.00000000E+00  0.00000000E+00
  0.00000000E+00  0.00000000E+00  0.00000000E+00
  0.00000000E+00  0.00000000E+00  0.00000000E+00
  0.00000000E+00  0.00000000E+00  0.00000000E+00
  0.00000000E+00  0.00000000E+00  0.00000000E+00
  0.00000000E+00  0.00000000E+00  0.00000000E+00
  0.00000000E+00  0.00000000E+00  0.00000000E+00
  0.00000000E+00  0.00000000E+00  0.00000000E+00
  0.00000000E+00  0.00000000E+00  0.00000000E+00
  0.00000000E+00  0.00000000E+00  0.00000000E+00
  0.00000000E+00  0.00000000E+00  0.00000000E+00
  0.00000000E+00  0.00000000E+00  0.00000000E+00
  0.00000000E+00  0.00000000E+00  0.00000000E+00
  0.00000000E+00  0.00000000E+00  0.00000000E+00
  0.00000000E+00  0.00000000E+00  0.00000000E+00
  0.00000000E+00  0.00000000E+00  0.00000000E+00
  0.00000000E+00  0.00000000E+00  0.00000000E+00
  0.00000000E+00  0.00000000E+00  0.00000000E+00
  0.00000000E+00  0.00000000E+00  0.00000000E+00
  0.00000000E+00  0.00000000E+00  0.00000000E+00
  0.00000000E+00  0.00000000E+00  0.00000000E+00
  0.00000000E+00  0.00000000E+00  0.00000000E+00
  0.00000000E+00  0.00000000E+00  0.00000000E+00
  0.00000000E+00  0.00000000E+00  0.00000000E+00
  0.00000000E+00  0.00000000E+00  0.00000000E+00
  0.00000000E+00  0.00000000E+00  0.00000000E+00
  0.00000000E+00  0.00000000E+00  0.00000000E+00
  0.00000000E+00  0.00000000E+00  0.00000000E+00
  0.00000000E+00  0.00000000E+00  0.00000000E+00
  0.00000000E+00  0.00000000E+00  0.00000000E+00
  0.00000000E+00  0.00000000E+00  0.00000000E+00
  0.00000000E+00  0.00000000E+00  0.00000000E+00
  0.00000000E+00  0.00000000E+00  0.00000000E+00
  0.00000000E+00  0.00000000E+00  0.00000000E+00
  0.00000000E+00  0.00000000E+00  0.00000000E+00
  0.00000000E+00  0.00000000E+00  0.00000000E+00
  0.00000000E+00  0.00000000E+00  0.00000000E+00
  0.00000000E+00  0.00000000E+00  0.00000000E+00
  0.00000000E+00  0.00000000E+00  0.00000000E+00
  0.00000000E+00  0.00000000E+00  0.00000000E+00
  0.00000000E+00  0.00000000E+00  0.00000000E+00
  0.00000000E+00  0.00000000E+00  0.00000000E+00
  0.00000000E+00  0.00000000E+00  0.00000000E+00
  0.00000000E+00  0.00000000E+00  0.00000000E+00
  0.00000000E+00  0.00000000E+00  0.00000000E+00
  0.00000000E+00  0.00000000E+00  0.00000000E+00
  0.00000000E+00  0.00000000E+00  0.00000000E+00
