 C Si 
 1.0000000000000000
     8.7433155800000009    0.0000000000000000    0.0000000000000000
     0.0000000000000000    8.7433155800000009    0.0000000000000000
     0.0000000000000000    0.0000000000000000    8.7433155800000009
 C   Si 
  32  32
Cartesian
  1.0790656922613295  1.0725377054811200  1.0633259824224852
  1.1315040895266020  3.2969135366979447  3.2657728561116741
  3.3697088039607634  1.1429169113136788  3.2828912619329533
  3.3463937687363527  3.3350796123100901  1.0356730611136729
  1.1293580862748158  1.0655059982716706  5.3740406981656710
  1.0636616489667616  3.3471949792964604  7.6533121344773498
  3.3062060519769796  1.1723735858326929  7.6131405942694288
  3.2919316477037772  3.2992502459760962  5.4613484096947937
  1.1061949231014716  5.4626385093345826  1.0943453114107831
  1.0887070132298931  7.6830126726659671  3.2967594317129736
  3.2478160730861512  5.4277768006715377  3.2437068863566734
  3.3219631336108839  7.6780783677856013  1.1406341188190723
  1.0590846571577293  5.5095969948973291  5.4206018816829769
  1.0574163273505843  7.6464460937283096  7.6061220887961998
  3.2195414440884367  5.4823441536524662  7.7063805302414696
  3.2032463942462677  7.6599941159788649  5.4195971589044856
  5.4738556899858786  1.1095716764511314  1.1133720374577933
  5.4641259875600783  3.2561306046335523  3.2483219017269547
  7.6582602592355000  1.0160919957522752  3.2987833049218782
  7.6935071128286205  3.2256276766046454  1.0654891232222283
  5.4766552780661950  1.1204499120987899  5.4709022678499863
  5.4364812132902527  3.2988761163421425  7.6755296369605475
  7.6991956147150713  1.0871100617724043  7.6859853881332194
  7.6384705340242256  3.2847584487155093  5.5113513163011545
  5.4344915109778125  5.5108664740325564  1.0518564442848766
  5.5107699032629478  7.6525186997647276  3.3361572876048324
  7.6861828775440308  5.5020790193634737  3.2174347441061282
  7.5828830615704188  7.6092257142396864  1.0253528071076823
  5.4665072191916648  5.5505917581813566  5.4027646599944408
  5.4716602704248753  7.6581899303100940  7.7197067561231201
  7.6528494911466831  5.4958882269879021  7.6568345088944527
  7.6159886997735882  7.6858050678351120  5.4792252997889275
 -0.0113748447272469  0.0055803358898500 -0.0144603200531619
  0.0182237431309287  2.1892809930372015  2.1975403595640266
  2.2020503771316662 -0.0120291516407041  2.1309910043436870
  2.1660073130891790  2.1600262426097645  0.0627712730855303
  0.0135225328445763 -0.0378096773654243  4.3550993372720708
 -0.0025799168476631  2.2684234781845420  6.5772966672952178
  2.1430745140915333 -0.0099065976398568  6.6021278082890902
  2.1765397116474308  2.1294867028765658  4.3898121541848694
 -0.0240259995427881  4.4069842462029163  0.0700436951828702
  0.0090926974546557  6.5776751950954795  2.1671131012771085
  2.1514132064919371  4.3386429450554029  2.2342298306030686
  2.2412143456123692  6.5661603141408564 -0.0380602713484645
 -0.0041533257915329  4.3606305449175942  4.3444427421425269
  0.1033377858616025  6.5989422160860727  6.5311284744413580
  2.1891572700566866  4.3545210577170623  6.5250048904606190
  2.2006204923485071  6.5021809951749709  4.3590979145859396
  4.4511034267385083  0.1430643443891751  0.0385045485889611
  4.3839133738118568  2.1259070441332866  2.1991755763508172
  6.5490724558947360  0.0482455541743005  2.2394345237595359
  6.5544304855112969  2.1587135441312633 -0.1019867361844112
  4.3989488896486915 -0.0217305148460807  4.3894744415349249
  4.3164504680635236  2.1033495000327260  6.5397489762091752
  6.5301019693347619  0.0402765646451809  6.5867663340966223
  6.5266244217221052  2.1077431839389900  4.4570919615085929
  4.3485931165085523  4.2786289587719031 -0.0305715914288506
  4.3881883796074801  6.5864485093785854  2.1591121250913883
  6.5239483364792257  4.2746900632994107  2.1962879812633891
  6.5763269494646153  6.5562657252716372 -0.0317772329730446
  4.4872181889253433  4.3413974156177089  4.3727750805606913
  4.3645638660829711  6.6423590986108918  6.5692347325440643
  6.5603979167876671  4.3990513822386648  6.5739652695919926
  6.5279085676093844  6.5358832772226192  4.4093501833443796
