 C Si                                   
   1.00000000000000     
     8.7433155800000009    0.0000000000000000    0.0000000000000000
     0.0000000000000000    8.7433155800000009    0.0000000000000000
     0.0000000000000000    0.0000000000000000    8.7433155800000009
   C    Si
    32    32
Direct
  0.1225058499460800  0.1204303967168130  0.1261825522468101
  0.1250623155636106  0.3704072362903759  0.3763412923289238
  0.3753239659728820  0.1226121586614610  0.3711172223181975
  0.3783243537012524  0.3708706840619271  0.1269421084277411
  0.1215877196967909  0.1255893901370939  0.6244462787277811
  0.1274782268740040  0.3743896977753352  0.8748185456662725
  0.3759248717199455  0.1228320053276732  0.8810582449939091
  0.3739938682263357  0.3743403271827219  0.6272157025674900
  0.1304180581685657  0.6240998517846563  0.1247148104678715
  0.1213770170624997  0.8730341830489223  0.3770640865790114
  0.3770305686870685  0.6252346966687838  0.3745198816737201
  0.3733344717682101  0.8749790511564015  0.1219364813698647
  0.1315201784334405  0.6235020127768820  0.6263170374138696
  0.1255707387043188  0.8749276679722016  0.8752785825628280
  0.3763150238099158  0.6221195169264462  0.8738512532390530
  0.3762049480141201  0.8762872626837250  0.6274309121429127
  0.6250458506974041  0.1209708200080399  0.1233634689444543
  0.6302644491620910  0.3741144500897349  0.3728404844707072
  0.8732514344840538  0.1267287795526642  0.3756674450463393
  0.8774289412913348  0.3711680882902897  0.1214416450209086
  0.6268312797816264  0.1194651162757481  0.6242154396254165
  0.6262440199883770  0.3773060637992103  0.8745002431233715
  0.8772401601344129  0.1242365465602049  0.8714924357657452
  0.8763930917628073  0.3740870897847230  0.6256254624028159
  0.6291879818355213  0.6264463613335209  0.1229814446627273
  0.6263820149468415  0.8749944097552316  0.3780627611245961
  0.8744338171048796  0.6229145142713364  0.3750175289983275
  0.8756222324564433  0.8736464713766807  0.1222134540678965
  0.6260097930181701  0.6260430684984613  0.6276648238586731
  0.6198192979997685  0.8760089930912756  0.8759467231725964
  0.8796418282816916  0.6276075997375798  0.8721466963145090
  0.8747081679268121  0.8738296146512070  0.6260145731217008
  0.9994998613348329  0.9981012095441528  0.9991435439458627
  0.0009054957005290  0.2517170614538884  0.2488904264530305
  0.2461527520043632  0.9996478699282747  0.2499057148612494
  0.2524742418527453  0.2506391170994391  0.9960559163748002
  0.0012632296148638  0.0031551692128744  0.5008251061984765
  0.0007473970716489  0.2489574623871320  0.7497807831943106
  0.2500025203082927  0.9978742001701093  0.7539693270822667
  0.2505401908821199  0.2489638387971809  0.4988314895469728
  0.0033786951366039  0.5004189757947941  0.9989038987109140
  0.0034319588348382  0.7486674713156845  0.2478097394308634
  0.2522278596603300  0.4975718724369003  0.2492330314300659
  0.2451301609158492  0.7442998730282895  0.0007393489122620
  0.0014744341225494  0.5060918213682370  0.5010624236190608
  0.0001488923005439  0.7496177134453745  0.7470850315284281
  0.2474488510417956  0.4998369233279263  0.7516253122859595
  0.2512425980371660  0.7480798763816807  0.4992029530662663
  0.5041207594621824  0.0059945605602749  0.9957124318523114
  0.5018288572238347  0.2498463083723905  0.2472672646615592
  0.7543853948523065  0.0005056597665529  0.2548603861047383
  0.7501699018627335  0.2529693517272307  0.0005737915545794
  0.5028273279207980  0.0001254833038260  0.5007564526366366
  0.5010419080534660  0.2468597724787855  0.7488337043689910
  0.7499551324633700  0.0037357290486426  0.7529787512617077
  0.7504431539368426  0.2490409803100988  0.5020963675327437
  0.5026450588659728  0.5015142145830538  0.0012354883917851
  0.4988654629385891  0.7535151230954753  0.2495540599161643
  0.7493036899472472  0.4958355121313929  0.2460557288983551
  0.7487679543343333  0.7526295210230245  0.9989229525581464
  0.4986326913912080  0.4993353864273402  0.4986902823274946
  0.4995373586703948  0.7514229080342361  0.7474156978958959
  0.7517112991437642  0.5020771653906735  0.7500812767020548
  0.7492768575008952  0.7497318533051995  0.4970120134369509
 
  0.00000000E+00  0.00000000E+00  0.00000000E+00
  0.00000000E+00  0.00000000E+00  0.00000000E+00
  0.00000000E+00  0.00000000E+00  0.00000000E+00
  0.00000000E+00  0.00000000E+00  0.00000000E+00
  0.00000000E+00  0.00000000E+00  0.00000000E+00
  0.00000000E+00  0.00000000E+00  0.00000000E+00
  0.00000000E+00  0.00000000E+00  0.00000000E+00
  0.00000000E+00  0.00000000E+00  0.00000000E+00
  0.00000000E+00  0.00000000E+00  0.00000000E+00
  0.00000000E+00  0.00000000E+00  0.00000000E+00
  0.00000000E+00  0.00000000E+00  0.00000000E+00
  0.00000000E+00  0.00000000E+00  0.00000000E+00
  0.00000000E+00  0.00000000E+00  0.00000000E+00
  0.00000000E+00  0.00000000E+00  0.00000000E+00
  0.00000000E+00  0.00000000E+00  0.00000000E+00
  0.00000000E+00  0.00000000E+00  0.00000000E+00
  0.00000000E+00  0.00000000E+00  0.00000000E+00
  0.00000000E+00  0.00000000E+00  0.00000000E+00
  0.00000000E+00  0.00000000E+00  0.00000000E+00
  0.00000000E+00  0.00000000E+00  0.00000000E+00
  0.00000000E+00  0.00000000E+00  0.00000000E+00
  0.00000000E+00  0.00000000E+00  0.00000000E+00
  0.00000000E+00  0.00000000E+00  0.00000000E+00
  0.00000000E+00  0.00000000E+00  0.00000000E+00
  0.00000000E+00  0.00000000E+00  0.00000000E+00
  0.00000000E+00  0.00000000E+00  0.00000000E+00
  0.00000000E+00  0.00000000E+00  0.00000000E+00
  0.00000000E+00  0.00000000E+00  0.00000000E+00
  0.00000000E+00  0.00000000E+00  0.00000000E+00
  0.00000000E+00  0.00000000E+00  0.00000000E+00
  0.00000000E+00  0.00000000E+00  0.00000000E+00
  0.00000000E+00  0.00000000E+00  0.00000000E+00
  0.00000000E+00  0.00000000E+00  0.00000000E+00
  0.00000000E+00  0.00000000E+00  0.00000000E+00
  0.00000000E+00  0.00000000E+00  0.00000000E+00
  0.00000000E+00  0.00000000E+00  0.00000000E+00
  0.00000000E+00  0.00000000E+00  0.00000000E+00
  0.00000000E+00  0.00000000E+00  0.00000000E+00
  0.00000000E+00  0.00000000E+00  0.00000000E+00
  0.00000000E+00  0.00000000E+00  0.00000000E+00
  0.00000000E+00  0.00000000E+00  0.00000000E+00
  0.00000000E+00  0.00000000E+00  0.00000000E+00
  0.00000000E+00  0.00000000E+00  0.00000000E+00
  0.00000000E+00  0.00000000E+00  0.00000000E+00
  0.00000000E+00  0.00000000E+00  0.00000000E+00
  0.00000000E+00  0.00000000E+00  0.00000000E+00
  0.00000000E+00  0.00000000E+00  0.00000000E+00
  0.00000000E+00  0.00000000E+00  0.00000000E+00
  0.00000000E+00  0.00000000E+00  0.00000000E+00
  0.00000000E+00  0.00000000E+00  0.00000000E+00
  0.00000000E+00  0.00000000E+00  0.00000000E+00
  0.00000000E+00  0.00000000E+00  0.00000000E+00
  0.00000000E+00  0.00000000E+00  0.00000000E+00
  0.00000000E+00  0.00000000E+00  0.00000000E+00
  0.00000000E+00  0.00000000E+00  0.00000000E+00
  0.00000000E+00  0.00000000E+00  0.00000000E+00
  0.00000000E+00  0.00000000E+00  0.00000000E+00
  0.00000000E+00  0.00000000E+00  0.00000000E+00
  0.00000000E+00  0.00000000E+00  0.00000000E+00
  0.00000000E+00  0.00000000E+00  0.00000000E+00
  0.00000000E+00  0.00000000E+00  0.00000000E+00
  0.00000000E+00  0.00000000E+00  0.00000000E+00
  0.00000000E+00  0.00000000E+00  0.00000000E+00
  0.00000000E+00  0.00000000E+00  0.00000000E+00
