 C Si 
 1.0000000000000000
     8.7433155800000009    0.0000000000000000    0.0000000000000000
     0.0000000000000000    8.7433155800000009    0.0000000000000000
     0.0000000000000000    0.0000000000000000    8.7433155800000009
 C   Si 
  32  32
Cartesian
  1.0711073064747236  1.0529609639197093  1.1032538749836684
  1.0934592921381858  3.2385873600023847  3.2904706846167904
  3.2815758792380585  1.0720367971221829  3.2447949919010113
  3.3078092160095887  3.2426394301239143  1.1098949143743386
  1.0630798039615950  1.0980676714683548  5.4597308776736142
  1.1145823671382586  3.2734072775506085  7.6488146199968394
  3.2868297878185291  1.0739589859040646  7.7033702803426998
  3.2699464148877793  3.2729756148789844  5.4839448242789821
  1.1402862398985540  5.4567019575844871  1.0904209454204579
  1.0612375643365106  7.6332133745241997  3.2967903028447352
  3.2964972453379215  5.4666242645407710  3.2745455164575783
  3.2641811035620614  7.6502179701493764  1.0661291373315009
  1.1499224251815037  5.4514748624734475  5.4760875112401299
  1.0979045961055907  7.6497687107544348  7.6528368677618737
  3.2902410106653286  5.4393872649650969  7.6403572770475678
  3.2892785832449505  7.6616560763781631  5.4858264695127099
  5.4649731246169537  1.0576860553016556  1.0786057400249154
  5.5106009778790286  3.2710007001726940  3.2598620167274595
  7.6351128723817867  1.1080297126971934  3.2845790251724480
  7.6716381327354535  3.2452397291473054  1.0618026269721379
  5.4805836945460138  1.0445212124002661  5.4577125785534264
  5.4754490968462024  3.2989059860441361  7.6460316004143447
  7.6699875595049241  1.0862393331452223  7.6197333914827663
  7.6625813734141213  3.2707614803916125  5.4700408526712216
  5.5011890843312710  5.4772182310816628  1.0752655811705529
  5.4766556303165181  7.6503522552258163  3.3055220295584888
  7.6454508167719784  5.4463381776367354  3.2788966040642102
  7.6558415072308206  7.6385668045997690  1.0685507970374521
  5.4734011765283563  5.4736921145535957  5.4878716334614843
  5.4192757249860222  7.6592230775150734  7.6586786319649258
  7.6909861020350148  5.4873713049119832  7.6254537979321872
  7.6478495525877506  7.6401680840452837  5.4734429704819991
 -0.0043728701832899 -0.0166017241757768 -0.0074882655617509
  0.0079170346660648  2.2008417051615932  2.1761275433196525
  2.1521911916596284 -0.0030787843423059  2.1850045302773946
  2.2074619723397939  2.1914168974929678 -0.0344843678090279
  0.0110448151727643  0.0275866401364507  4.3788719538802825
  0.0065347284610046  2.1767136596466932  6.5555700032874311
  2.1858509308507625 -0.0185865387726314  6.5921917643204999
  2.1905519543557852  2.1767694106120228  4.3614411343506410
  0.0295409978279595  4.3753210275942456 -0.0095835594781214
  0.0300066991505466  6.5458359661936409  2.1666787556415983
  2.2053077750782122  4.3504279044473417  2.1791230467531437
  2.1432503550634809  6.5076486760402581  0.0064643608636167
  0.0128914428353397  4.4249205066794559  4.3809468949810766
  0.0013018123710639  6.5541442330108923  6.5320001957472993
  2.1635233945668277  4.3702319591923118  6.5716973032322112
  2.1966933217780311  6.5406984382523961  4.3646889571263232
  4.4076868904071356  0.0524123347419027 -0.0374875613860240
  4.3876480658587660  2.1844851205978069  2.1619357275393942
  6.5958295761366159  0.0044211429151064  2.2283247845543874
  6.5589721906035292  2.2117908742192021  0.0050168406388091
  4.3963780102596832  0.0010971401253737  4.3782716941234385
  4.3807675209168107  2.1583728947890486  6.5472893942384847
  6.5570943939679713  0.0326626579936712  6.5835308473154379
  6.5613613197203371  2.1774438832037331  4.3899869929104538
  4.3947843743928692  4.3848970459554542  0.0108022649048085
  4.3617381744349029  6.5882205155262987  2.1819299001172792
  6.5513986264672806  4.3352463583357030  2.1513428880252223
  6.5467145209360993  6.5804774171285514 -0.0094169656787307
  4.3597029793380537  4.3658468637954764  4.3602065150685849
  4.3676127708549002  6.5699276189846447  6.5348913161497784
  6.5724491134657361  4.3898191025225008  6.5581973128553726
  6.5511640219210427  6.5551421938256267  4.3455328805304365
