 C Si                                   
   1.00000000000000     
     8.7433155800000009    0.0000000000000000    0.0000000000000000
     0.0000000000000000    8.7433155800000009    0.0000000000000000
     0.0000000000000000    0.0000000000000000    8.7433155800000009
   C    Si
    32    32
Direct
  0.1223638521483892  0.1213933254364150  0.1261219751561455
  0.1287851324851346  0.3726991477606134  0.3803691172832728
  0.3728924253893950  0.1292700737672376  0.3714135557560354
  0.3763421489267174  0.3774978856113336  0.1277089758282131
  0.1298844783382478  0.1243235081884038  0.6294455293204138
  0.1207952312310425  0.3794882796899657  0.8733942288014021
  0.3700219566648286  0.1234704007826650  0.8800488904700146
  0.3772231399117985  0.3749051932623075  0.6199708600372560
  0.1249387598607541  0.6295522803245532  0.1214732674232479
  0.1191296787037928  0.8784148022858602  0.3760988345272267
  0.3731898961767470  0.6210093614530621  0.3724279679813023
  0.3810413360289431  0.8767348462093523  0.1256857249104257
  0.1215026802993222  0.6238587072838229  0.6291361667852655
  0.1253416674917744  0.8740225442366025  0.8729433327266847
  0.3739363137977421  0.6259499211803643  0.8747359100013199
  0.3731494637469766  0.8792903001979724  0.6304019296718337
  0.6276340293407827  0.1283637261269348  0.1275756481861876
  0.6296269265132608  0.3731570133128699  0.3780024822245736
  0.8782782074942972  0.1197568322276368  0.3787914667076109
  0.8719619772981204  0.3732847733204494  0.1194943113950941
  0.6218032765379036  0.1260486178149804  0.6255316882595139
  0.6230205450068595  0.3778680230022076  0.8727131280160236
  0.8721570872198825  0.1247685506235285  0.8751088417745905
  0.8667681688113049  0.3747966101018960  0.6199000829074421
  0.6245693130853169  0.6266124157482125  0.1222987674787106
  0.6251324231455868  0.8771029736681157  0.3766385516527748
  0.8820075105563063  0.6261880058906542  0.3768303689529162
  0.8803636595740869  0.8704248193247821  0.1283153584517862
  0.6232611796994263  0.6279095278403446  0.6236110838301130
  0.6296877415742017  0.8736986488982836  0.8755216153000376
  0.8779543937154628  0.6267927123369290  0.8739983938234417
  0.8773549927266941  0.8685271921505304  0.6242517888016579
  0.0013963733180660  0.0015685100366838  0.9989907734391892
  0.0024849279925760  0.2466468573273985  0.2516260664069137
  0.2537702998914497  0.0030559505196308  0.2520566323572950
  0.2466446057291876  0.2501925911295189  0.0009062132883670
  0.9965751249988983  0.9995619856622326  0.4952487013367630
  0.9997475386199923  0.2512330743454712  0.7425084531366082
  0.2473465118465228  0.0017158518950353  0.7489836016874989
  0.2540951308446395  0.2494367099107748  0.5015955483240262
  0.9991015408097752  0.5020171123290069  0.0007266064296019
  0.9999514105245950  0.7475371227233367  0.2517542032914193
  0.2469312939027475  0.5023232565206044  0.2459302143866537
  0.2547305176246155  0.7507254872384408  0.0000834709472173
  0.9977579255212987  0.5028084314436114  0.5027956375467610
  0.9997188764002658  0.7444831580848543  0.7561083477473716
  0.2491508479413795  0.5045688426595376  0.7520241075870118
  0.2458649830751725  0.7483339713425252  0.5005644874239152
  0.5063867315561410  0.0009052544548496  0.0002541848802053
  0.4948337328372787  0.2530878264094412  0.2531739851051427
  0.7441820940422019  0.9993474440328995  0.2466053228963361
  0.7530447345588200  0.2429064793532945  0.0011948081009123
  0.4970127010254046  0.9981477703706148  0.5036816837580105
  0.4976910171871083  0.2524912043038086  0.7491177274319867
  0.7461249941513941  0.0013214723113961  0.7552529755368198
  0.7488066154821098  0.2498051279343869  0.5050277308502231
  0.4998569360927405  0.5016975661867491  0.9961372903905428
  0.5073667851424943  0.7466996760318025  0.2546634714632390
  0.7503380403113908  0.4980012434863994  0.2536209462119459
  0.7524201336686929  0.7478606963159393  0.0037687128962531
  0.5010864484245658  0.4938634997506028  0.5030441182313652
  0.4967392386264819  0.7542360417776379  0.7481564595251413
  0.7523660333302331  0.4988423251666916  0.7468262819978833
  0.7493439330529696  0.7475478431984826  0.4983608736538869
 
  0.00000000E+00  0.00000000E+00  0.00000000E+00
  0.00000000E+00  0.00000000E+00  0.00000000E+00
  0.00000000E+00  0.00000000E+00  0.00000000E+00
  0.00000000E+00  0.00000000E+00  0.00000000E+00
  0.00000000E+00  0.00000000E+00  0.00000000E+00
  0.00000000E+00  0.00000000E+00  0.00000000E+00
  0.00000000E+00  0.00000000E+00  0.00000000E+00
  0.00000000E+00  0.00000000E+00  0.00000000E+00
  0.00000000E+00  0.00000000E+00  0.00000000E+00
  0.00000000E+00  0.00000000E+00  0.00000000E+00
  0.00000000E+00  0.00000000E+00  0.00000000E+00
  0.00000000E+00  0.00000000E+00  0.00000000E+00
  0.00000000E+00  0.00000000E+00  0.00000000E+00
  0.00000000E+00  0.00000000E+00  0.00000000E+00
  0.00000000E+00  0.00000000E+00  0.00000000E+00
  0.00000000E+00  0.00000000E+00  0.00000000E+00
  0.00000000E+00  0.00000000E+00  0.00000000E+00
  0.00000000E+00  0.00000000E+00  0.00000000E+00
  0.00000000E+00  0.00000000E+00  0.00000000E+00
  0.00000000E+00  0.00000000E+00  0.00000000E+00
  0.00000000E+00  0.00000000E+00  0.00000000E+00
  0.00000000E+00  0.00000000E+00  0.00000000E+00
  0.00000000E+00  0.00000000E+00  0.00000000E+00
  0.00000000E+00  0.00000000E+00  0.00000000E+00
  0.00000000E+00  0.00000000E+00  0.00000000E+00
  0.00000000E+00  0.00000000E+00  0.00000000E+00
  0.00000000E+00  0.00000000E+00  0.00000000E+00
  0.00000000E+00  0.00000000E+00  0.00000000E+00
  0.00000000E+00  0.00000000E+00  0.00000000E+00
  0.00000000E+00  0.00000000E+00  0.00000000E+00
  0.00000000E+00  0.00000000E+00  0.00000000E+00
  0.00000000E+00  0.00000000E+00  0.00000000E+00
  0.00000000E+00  0.00000000E+00  0.00000000E+00
  0.00000000E+00  0.00000000E+00  0.00000000E+00
  0.00000000E+00  0.00000000E+00  0.00000000E+00
  0.00000000E+00  0.00000000E+00  0.00000000E+00
  0.00000000E+00  0.00000000E+00  0.00000000E+00
  0.00000000E+00  0.00000000E+00  0.00000000E+00
  0.00000000E+00  0.00000000E+00  0.00000000E+00
  0.00000000E+00  0.00000000E+00  0.00000000E+00
  0.00000000E+00  0.00000000E+00  0.00000000E+00
  0.00000000E+00  0.00000000E+00  0.00000000E+00
  0.00000000E+00  0.00000000E+00  0.00000000E+00
  0.00000000E+00  0.00000000E+00  0.00000000E+00
  0.00000000E+00  0.00000000E+00  0.00000000E+00
  0.00000000E+00  0.00000000E+00  0.00000000E+00
  0.00000000E+00  0.00000000E+00  0.00000000E+00
  0.00000000E+00  0.00000000E+00  0.00000000E+00
  0.00000000E+00  0.00000000E+00  0.00000000E+00
  0.00000000E+00  0.00000000E+00  0.00000000E+00
  0.00000000E+00  0.00000000E+00  0.00000000E+00
  0.00000000E+00  0.00000000E+00  0.00000000E+00
  0.00000000E+00  0.00000000E+00  0.00000000E+00
  0.00000000E+00  0.00000000E+00  0.00000000E+00
  0.00000000E+00  0.00000000E+00  0.00000000E+00
  0.00000000E+00  0.00000000E+00  0.00000000E+00
  0.00000000E+00  0.00000000E+00  0.00000000E+00
  0.00000000E+00  0.00000000E+00  0.00000000E+00
  0.00000000E+00  0.00000000E+00  0.00000000E+00
  0.00000000E+00  0.00000000E+00  0.00000000E+00
  0.00000000E+00  0.00000000E+00  0.00000000E+00
  0.00000000E+00  0.00000000E+00  0.00000000E+00
  0.00000000E+00  0.00000000E+00  0.00000000E+00
  0.00000000E+00  0.00000000E+00  0.00000000E+00
