 C Si 
 1.0000000000000000
     8.7433155800000009    0.0000000000000000    0.0000000000000000
     0.0000000000000000    8.7433155800000009    0.0000000000000000
     0.0000000000000000    0.0000000000000000    8.7433155800000009
 C   Si 
  32  32
Cartesian
  1.0698657749178002  1.0613801535962022  1.1027242303630731
  1.1260090553296627  3.2586262652681173  3.3256872292936572
  3.2603161525710975  1.1302490499968207  3.2473859286649174
  3.2904781741216520  3.3005831446826397  1.1165998780646849
  1.1356209830549542  1.0869996661039230  5.5034409032684906
  1.0561508272120634  3.3179857882406818  7.6363613681613725
  3.2352187386496967  1.0795406788319162  7.6945451752082210
  3.2981809563273461  3.2779144172732151  5.4206008797097462
  1.0923790056364318  5.5043742609862214  1.0620791116151929
  1.0415883758512521  7.6802578265285515  3.2883507995417243
  3.2629170335407274  5.4296808253184334  3.2562552548786554
  3.3315646499259026  7.6655694403911259  1.0989099567929441
  1.0623362776728040  5.4545935551132976  5.5007360489950798
  1.0959017542039964  7.6418549282951220  7.6324190414863287
  3.2694431983555443  5.4728776981560525  7.6480921103000172
  3.2625635200475549  7.6879125810637907  5.5118030133618294
  5.4876023872734532  1.1223245665525037  1.1154341524148785
  5.5050269161709240  3.2626295282846756  3.3049949921127739
  7.6790635351593597  1.0470717770273124  3.3118933324356927
  7.6238387412782602  3.2637465743494714  1.0447764745420727
  5.4366222754488893  1.1020828439791579  5.4692209557430935
  5.4472652378185833  3.3038193726989791  7.6304062890530409
  7.6255446488970300  1.0908908125606955  7.6513527704835447
  7.5784276346159780  3.2769650404351243  5.4199820529279563
  5.4608066058887781  5.4786700972327935  1.0692967191114071
  5.4657300548519503  7.6687880949367404  3.2930697166943697
  7.7116700087239529  5.4749593479128631  3.2947468358831808
  7.6972973008199350  7.6103988840210501  1.1219016727047681
  5.4493691828751727  5.4900111575969515  5.4524285051124979
  5.5055586414407349  7.6390230091373086  7.6549617796796081
  7.6762323291018806  5.4802464872059025  7.6416437736114737
  7.6709915770981025  7.5938073307834149  5.4580303908724090
  0.0122089325873681  0.0137139782411238 -0.0088239863129047
  0.0217265096326923  2.1565113104287108  2.2000461067496593
  2.2187938167821759  0.0267191397899978  2.2038106807318569
  2.1564916239949552  2.1875127800233156  0.0079233087629661
 -0.0299447629566913 -0.0038296975836798  4.3301156863724755
 -0.0022073495171397  2.1966100531360797  6.4919857265909986
  2.1626286106863346  0.0150022346068290  6.5485999937988106
  2.2216339163160788  2.1809038719868190  4.3856081725200999
 -0.0078555122358934  4.3892940396527873  0.0063529493164752
 -0.0004248331173308  6.5359529717353491  2.2011664479683763
  2.1589982291694474  4.3919707549329212  2.1502454750395654
  2.2271893034487951  6.5638298488749784  0.0007298128332739
 -0.0196031647211704  4.3962127923963141  4.3961009313186308
 -0.0024579523494499  6.5092511951308900  6.6108938970276343
  2.1784044905760771  4.4116046232077126  6.5751840964011468
  2.1496751370975624  6.5429200706823991  4.3765932816882431
  4.4274989995200880  0.0079149253789240  0.0022224186232816
  4.3264874858257070  2.2128267357540201  2.2135800484204577
  6.5066188971961800 -0.0057055027539706  2.1561481617904854
  6.5841077601050744  2.1238080054126294  0.0104465842838030
  4.3455388923333160 -0.0161946281763503  4.4038479129620578
  4.3514696245981179  2.2076102804024647  6.5497726975102610
  6.5236062859912805  0.0115540494487624  6.6034151078524532
  6.5470525475518260  2.1841250670326371  4.4156168274747873
  4.3704069371107375  4.3865001468886584 -0.0337728891093869
  4.4360679173109103  6.5286309110298166  2.2266030977013975
  6.5604422781212799  4.3541820310340293  2.2174879704292478
  6.5786466774111521  6.5387820777687793  0.0329510461823632
  4.3811569514373918  4.3180044317627484  4.3982734763596598
  4.3431479242802817  6.5945237350719248  6.5413680288438041
  6.5781736610790276  4.3615358735933860  6.5297378669455517
  6.5517504846405270  6.5360467042326853  4.3573263910804423
