 C Si                                   
   1.00000000000000     
     8.7433155800000009    0.0000000000000000    0.0000000000000000
     0.0000000000000000    8.7433155800000009    0.0000000000000000
     0.0000000000000000    0.0000000000000000    8.7433155800000009
   C    Si
    32    32
Direct
  0.1263851261295201  0.1212497049741970  0.1305577038467618
  0.1230728290173104  0.3780248640586308  0.3770423894993016
  0.3728463445209869  0.1213900143661988  0.3750225325719398
  0.3712701750757503  0.3770796313550377  0.1271875458321716
  0.1223823865933369  0.1258149310618322  0.6268121302856287
  0.1180986678493170  0.3705913794259175  0.8763930626063896
  0.3759911396780566  0.1242284929337814  0.8719264693678426
  0.3799853273810214  0.3689095448528619  0.6246507664783252
  0.1258668798101681  0.6223287174569094  0.1209990149736697
  0.1238555262854035  0.8803585161658489  0.3775045259409637
  0.3750640191337382  0.6221739419596091  0.3742257293200453
  0.3793792874070903  0.8775883616183151  0.1186711097880817
  0.1189442448924964  0.6278558684391342  0.6266188340619010
  0.1214871234786798  0.8763617205192133  0.8783835674470453
  0.3738520691969285  0.6196201696879697  0.8757276406959207
  0.3738033146649116  0.8754275835583840  0.6205658533485163
  0.6249266057616580  0.1300063226966515  0.1243859496433259
  0.6233554887402946  0.3806028464279549  0.3712291988926282
  0.8803966393052178  0.1268576447046001  0.3740142135296480
  0.8801366111936133  0.3806423930942699  0.1234728720777269
  0.6213472936960400  0.1223595294850810  0.6240426173682039
  0.6242883288369612  0.3709842851663865  0.8770713486299115
  0.8711452540402576  0.1244410482490181  0.8777673436420983
  0.8724044326133154  0.3791672915364401  0.6250278414246679
  0.6294703157207309  0.6233115222724166  0.1216587753550655
  0.6289218438219137  0.8739118183737418  0.3773672430096795
  0.8696568393920927  0.6241106395968998  0.3767850011432117
  0.8785060376145850  0.8817488419468944  0.1246634485748075
  0.6268999949866227  0.6212979474647184  0.6217948721908044
  0.6265049442604251  0.8830920144017114  0.8774884605200128
  0.8712044231938876  0.6311085485195633  0.8732604411259643
  0.8754813670293657  0.8772878788359861  0.6199562494369104
  0.9991750229843959  0.9995492444939700  0.9941428074624170
  0.0088189934729002  0.2497002008435913  0.2531221488549917
  0.2469490251418591  0.0020011923323580  0.2543142650885386
  0.2431881295156870  0.2462707816152303  0.0053204899638573
  0.9977009553255414  0.9972624256437825  0.5038856175369801
  0.0032320079354520  0.2542083151966921  0.7495462662526435
  0.2536363352827351  0.0006285388290337  0.7523861009739292
  0.2530050374557433  0.2456479152352458  0.5002597019754873
  0.0021437618627331  0.4963330270646438  0.0005138621988650
  0.9982458540237928  0.7525090654716848  0.2508294559106545
  0.2479494036680734  0.4977165438536275  0.2498492274963056
  0.2471580816774903  0.7496096323990855  0.0017455483441537
  0.0007973697986188  0.4896568319310788  0.5022648315262259
  0.0004041391329821  0.7484396250158269  0.7515155806071760
  0.2477724462813669  0.4979284640170647  0.7489616128984693
  0.2511513887985899  0.7380395477957080  0.5014386795791239
  0.4981641262757464  0.0050419624518696  0.9934617536881802
  0.4994922463257723  0.2532737844140414  0.2467396174853889
  0.7524379230059992  0.0005010221492086  0.2514681909940180
  0.7506382324984173  0.2497707072616677  0.0014774257678312
  0.5010346091265632  0.9981660297654926  0.4952341491615115
  0.5005170469487084  0.2599387403616120  0.7459200979106981
  0.7439712571526726  0.9989983092222232  0.7489891768596308
  0.7509854615156968  0.2537314277846647  0.5050225181280439
  0.4996934594232130  0.5014402580518578  0.9983335283147952
  0.4969458665893427  0.7503929111185599  0.2493837589268750
  0.7452319836567654  0.5034615124914694  0.2474293650600146
  0.7489770507849514  0.7532748422542710  0.9995004925862361
  0.4992865014583998  0.4995234415597949  0.4972611000976670
  0.4974960763936451  0.7417434074713611  0.7524933431080782
  0.7532590994159136  0.5019870361951391  0.7494002083146469
  0.7473042734518174  0.7503127006279016  0.5007688824735652
 
  0.00000000E+00  0.00000000E+00  0.00000000E+00
  0.00000000E+00  0.00000000E+00  0.00000000E+00
  0.00000000E+00  0.00000000E+00  0.00000000E+00
  0.00000000E+00  0.00000000E+00  0.00000000E+00
  0.00000000E+00  0.00000000E+00  0.00000000E+00
  0.00000000E+00  0.00000000E+00  0.00000000E+00
  0.00000000E+00  0.00000000E+00  0.00000000E+00
  0.00000000E+00  0.00000000E+00  0.00000000E+00
  0.00000000E+00  0.00000000E+00  0.00000000E+00
  0.00000000E+00  0.00000000E+00  0.00000000E+00
  0.00000000E+00  0.00000000E+00  0.00000000E+00
  0.00000000E+00  0.00000000E+00  0.00000000E+00
  0.00000000E+00  0.00000000E+00  0.00000000E+00
  0.00000000E+00  0.00000000E+00  0.00000000E+00
  0.00000000E+00  0.00000000E+00  0.00000000E+00
  0.00000000E+00  0.00000000E+00  0.00000000E+00
  0.00000000E+00  0.00000000E+00  0.00000000E+00
  0.00000000E+00  0.00000000E+00  0.00000000E+00
  0.00000000E+00  0.00000000E+00  0.00000000E+00
  0.00000000E+00  0.00000000E+00  0.00000000E+00
  0.00000000E+00  0.00000000E+00  0.00000000E+00
  0.00000000E+00  0.00000000E+00  0.00000000E+00
  0.00000000E+00  0.00000000E+00  0.00000000E+00
  0.00000000E+00  0.00000000E+00  0.00000000E+00
  0.00000000E+00  0.00000000E+00  0.00000000E+00
  0.00000000E+00  0.00000000E+00  0.00000000E+00
  0.00000000E+00  0.00000000E+00  0.00000000E+00
  0.00000000E+00  0.00000000E+00  0.00000000E+00
  0.00000000E+00  0.00000000E+00  0.00000000E+00
  0.00000000E+00  0.00000000E+00  0.00000000E+00
  0.00000000E+00  0.00000000E+00  0.00000000E+00
  0.00000000E+00  0.00000000E+00  0.00000000E+00
  0.00000000E+00  0.00000000E+00  0.00000000E+00
  0.00000000E+00  0.00000000E+00  0.00000000E+00
  0.00000000E+00  0.00000000E+00  0.00000000E+00
  0.00000000E+00  0.00000000E+00  0.00000000E+00
  0.00000000E+00  0.00000000E+00  0.00000000E+00
  0.00000000E+00  0.00000000E+00  0.00000000E+00
  0.00000000E+00  0.00000000E+00  0.00000000E+00
  0.00000000E+00  0.00000000E+00  0.00000000E+00
  0.00000000E+00  0.00000000E+00  0.00000000E+00
  0.00000000E+00  0.00000000E+00  0.00000000E+00
  0.00000000E+00  0.00000000E+00  0.00000000E+00
  0.00000000E+00  0.00000000E+00  0.00000000E+00
  0.00000000E+00  0.00000000E+00  0.00000000E+00
  0.00000000E+00  0.00000000E+00  0.00000000E+00
  0.00000000E+00  0.00000000E+00  0.00000000E+00
  0.00000000E+00  0.00000000E+00  0.00000000E+00
  0.00000000E+00  0.00000000E+00  0.00000000E+00
  0.00000000E+00  0.00000000E+00  0.00000000E+00
  0.00000000E+00  0.00000000E+00  0.00000000E+00
  0.00000000E+00  0.00000000E+00  0.00000000E+00
  0.00000000E+00  0.00000000E+00  0.00000000E+00
  0.00000000E+00  0.00000000E+00  0.00000000E+00
  0.00000000E+00  0.00000000E+00  0.00000000E+00
  0.00000000E+00  0.00000000E+00  0.00000000E+00
  0.00000000E+00  0.00000000E+00  0.00000000E+00
  0.00000000E+00  0.00000000E+00  0.00000000E+00
  0.00000000E+00  0.00000000E+00  0.00000000E+00
  0.00000000E+00  0.00000000E+00  0.00000000E+00
  0.00000000E+00  0.00000000E+00  0.00000000E+00
  0.00000000E+00  0.00000000E+00  0.00000000E+00
  0.00000000E+00  0.00000000E+00  0.00000000E+00
  0.00000000E+00  0.00000000E+00  0.00000000E+00
