 C Si 
 1.0000000000000000
     8.7433155800000009    0.0000000000000000    0.0000000000000000
     0.0000000000000000    8.7433155800000009    0.0000000000000000
     0.0000000000000000    0.0000000000000000    8.7433155800000009
 C   Si 
  32  32
Cartesian
  1.1050250423685180  1.0601244345713037  1.1415072061323990
  1.0760645834216975  3.3051906835512290  3.2966005984296558
  3.2599132529963617  1.0613512038644251  3.2789403518872722
  3.2461323061291272  3.2969262157271322  1.1120408510563835
  1.0700278274191060  1.1000396469495739  5.4804162644592989
  1.0325739225841768  3.2401973815483380  7.6625811184903743
  3.2874091894890975  1.0861689177478646  7.6235282842382333
  3.3223316330619075  3.2254925711227487  5.4615187786089061
  1.1004938512502405  5.4412163712224002  1.0579325727839644
  1.0829079526402556  7.6972523303785456  3.3006412031801728
  3.2793030819894065  5.4398631202054588  3.2719736496008025
  3.3170328343157118  7.6730319949641039  1.0375789631060137
  1.0399670695198970  5.4895419965182981  5.4787262145748583
  1.0622002594805244  7.6623070847312302  7.6799847304757121
  3.2687066212247529  5.4175346833150533  7.6567631247332768
  3.2682803449653592  7.6541396304877889  5.4258030939980690
  5.4639305285124120  1.1366863067321533  1.0875456114496014
  5.4501937565815446  3.3277307969658989  3.2457740384288365
  7.6975856530169775  1.1091564213878582  3.2701243002952074
  7.6953121451775184  3.3280765659496252  1.0795622861445207
  5.4326354735634146  1.0698279805084030  5.4562015390194034
  5.4583498719323567  3.2436326804304350  7.6685115872474885
  7.6166978720932557  1.0880273559471820  7.6745968912811469
  7.6277072677290887  3.3151792875169677  5.4648156638620664
  5.5036576185885835  5.4498093438779316  1.0637010660056641
  5.4988621556904524  7.6408868171332456  3.2994408951881784
  7.6036841931104249  5.4567962788313551  3.2943501708057559
  7.6810555257996533  7.7094083874412673  1.0899718721806313
  5.4811844932684695  5.4322040238903160  5.4365487935899628
  5.4777304400992133  7.7211521680920772  7.6721585281348492
  7.6172152066760495  5.5179812049422789  7.6351916202943313
  7.6546098763475277  7.6704047791718271  5.4204731346201047
 -0.0072130343936634 -0.0039410976386630 -0.0512112827689232
  0.0771072430315553  2.1832076563649134  2.2131268277269474
  2.1591532589886389  0.0174970560980787  2.2235498761648653
  2.1262705616655850  2.1532231617952435  0.0465187227942482
 -0.0201012731213069 -0.0239354765200970  4.4056309703490166
  0.0282584653366951  2.2226235228247928  6.5535195476575421
  2.2176225219316517  0.0054955133365247  6.5783491188208272
  2.2121028858052654  2.1477772444708481  4.3739284463284536
  0.0187435864942639  4.3395962884028894  0.0044928593693165
 -0.0153370518433661  6.5794242362298538  2.1930810897865798
  2.1678998841427828  4.3516928122991798  2.1845106434194066
  2.1609811062536917  6.5540735778730275  0.0152618800330823
  0.0069716557832726  4.2812242074764448  4.3914599267693504
  0.0035335159779023  6.5438438340902279  6.5707378845354478
  2.1663526898665801  4.3535456971658411  6.5484077388771338
  2.1958958506213548  6.4529126768983787  4.3842366195787994
  4.3556061666638328  0.0440834688592316 -0.0571659508440213
  4.3672183393893054  2.2144526252728554  2.1573223417632335
  6.5788022152011845  0.0043805947631284  2.1986657521923947
  6.5630669531470476  2.1838241162285708  0.0129175997341803
  4.3807037040954810 -0.0160349805246216  4.3299884521118734
  4.3761784946422111  2.2727264384492609  6.5218148134977056
  6.5047754837351341 -0.0087580985836491  6.5486487392881747
  6.5661028860237129  2.2184539456852765  4.4155712509997720
  4.3689776089990850  4.3842504206640092 -0.0145704878489031
  4.3449545377672250  6.5609220309044387  2.1804409048242914
  6.5157984134205060  4.4019228860970046  2.1633530224787068
  6.5485427171905268  6.5861196643037871 -0.0043673509530753
  4.3654194470849061  4.3674910891649894  4.3477107238118773
  4.3497651957214138  6.4852966909066296  6.5792867706431277
  6.5859820196999337  4.3890310745229835  6.5522425170126812
  6.5339170970718863  6.5602207252718134  4.3783803721103043
