 C Si                                   
   1.00000000000000     
     8.7433155800000009    0.0000000000000000    0.0000000000000000
     0.0000000000000000    8.7433155800000009    0.0000000000000000
     0.0000000000000000    0.0000000000000000    8.7433155800000009
   C    Si
    32    32
Direct
  0.1188321563379873  0.1264957060779395  0.1248956837367530
  0.1177039314624722  0.3704175456184444  0.3676224324011841
  0.3787284979004397  0.1210265510645243  0.3667308509287466
  0.3757804400337008  0.3774823107410512  0.1187541412272353
  0.1291149438899239  0.1308176322169814  0.6309449055662952
  0.1282561652759426  0.3741929747144965  0.8721858225580092
  0.3692833234925459  0.1240202479375796  0.8777214354108338
  0.3812884273664778  0.3739113496174724  0.6253051839144206
  0.1210254080305404  0.6182964006082727  0.1246353153494795
  0.1249714206547452  0.8752944586203881  0.3700507034490599
  0.3758898379969366  0.6243421907714151  0.3676911617513952
  0.3765386268810005  0.8808958544218655  0.1227436710395367
  0.1203832286134983  0.6218319990039234  0.6248305486695429
  0.1286431439095850  0.8782104320189461  0.8831570068855825
  0.3744370218440665  0.6245760007672416  0.8799436578888162
  0.3665703519219079  0.8752473979896607  0.6215222212628646
  0.6306383593146734  0.1202536406397030  0.1294681491080780
  0.6206627706351711  0.3706944102918541  0.3737263923559979
  0.8633417679072863  0.1231997278211665  0.3813811265084865
  0.8750258265831192  0.3731157751871734  0.1270809795029280
  0.6224571933619032  0.1232646972796090  0.6209819235865339
  0.6208034183003974  0.3756968173125230  0.8737280591224703
  0.8751850888478785  0.1182403623161576  0.8760219754143179
  0.8796306286449109  0.3750424575403528  0.6227601752040357
  0.6201293407327384  0.6282467322463035  0.1304811942928481
  0.6287106175812482  0.8705597728981900  0.3730602122241180
  0.8722263135514368  0.6278340000406075  0.3680303177863635
  0.8696358720332569  0.8720902560259489  0.1329934210767973
  0.6181846436070799  0.6276652279719173  0.6218445268479442
  0.6258247743794882  0.8742188730986626  0.8783453043456717
  0.8819411557074162  0.6148539919838498  0.8801946046592590
  0.8910847466864809  0.8768330539952700  0.6119706105182772
  0.9957521976475405  0.9976609422629323  0.9973464790139346
  0.0092698903845374  0.2488615447633720  0.2534419209034056
  0.2465771979478717  0.0005285403995643  0.2447705858173990
  0.2528303121626223  0.2462666780337841  0.9960957264458870
  0.0011043778511777  0.9923530873746245  0.5008510560800659
  0.9943005542887846  0.2522937731885264  0.7533324272012862
  0.2494965346942450  0.0080815657183066  0.7525753945171303
  0.2676059055017745  0.2422320054898321  0.4974572050037338
  0.9939066318221705  0.5025745066017890  0.9958046629449413
  0.0072300676085320  0.7559477128817491  0.2532811955810388
  0.2517743020217296  0.4928568500244310  0.2502726508910129
  0.2465646009365798  0.7527840114378250  0.0052001694291448
  0.9947086891573065  0.5033357289618152  0.4959069437318959
  0.0043135821032223  0.7564783006199747  0.7475462492506537
  0.2574994291933521  0.4975050893268147  0.7482634421642587
  0.2459185488353697  0.7561779464359759  0.5005266205293566
  0.4928883483077371  0.0053731370872185  0.9997083202993409
  0.5012713222572316  0.2498537745093827  0.2479647798907223
  0.7583077703219914  0.0007943295728765  0.2398295534695336
  0.7584675539321921  0.2559404684337920  0.0160208897362750
  0.5026930532653466  0.9944457383342709  0.4973961112294063
  0.4997669018043993  0.2511666526505465  0.7494916670533627
  0.7463341012208886  0.0057604004583993  0.7450965913152885
  0.7516327607565501  0.2563890659965793  0.4979733924101950
  0.4969396188153539  0.4912713441271208  0.0018243861226139
  0.5001290870715778  0.7441257015230320  0.2503113311106091
  0.7417301025764402  0.5046674778905995  0.2517761339743458
  0.7562311983451409  0.7511889802649918  0.0008709362166783
  0.4981495266025107  0.5035658224846671  0.4959800728226256
  0.4976658224037180  0.7410285206563643  0.7547234559770430
  0.7404840037252782  0.5029320829166579  0.7614996061703962
  0.7563553002916592  0.7529589445848757  0.5018740150369183
 
  0.00000000E+00  0.00000000E+00  0.00000000E+00
  0.00000000E+00  0.00000000E+00  0.00000000E+00
  0.00000000E+00  0.00000000E+00  0.00000000E+00
  0.00000000E+00  0.00000000E+00  0.00000000E+00
  0.00000000E+00  0.00000000E+00  0.00000000E+00
  0.00000000E+00  0.00000000E+00  0.00000000E+00
  0.00000000E+00  0.00000000E+00  0.00000000E+00
  0.00000000E+00  0.00000000E+00  0.00000000E+00
  0.00000000E+00  0.00000000E+00  0.00000000E+00
  0.00000000E+00  0.00000000E+00  0.00000000E+00
  0.00000000E+00  0.00000000E+00  0.00000000E+00
  0.00000000E+00  0.00000000E+00  0.00000000E+00
  0.00000000E+00  0.00000000E+00  0.00000000E+00
  0.00000000E+00  0.00000000E+00  0.00000000E+00
  0.00000000E+00  0.00000000E+00  0.00000000E+00
  0.00000000E+00  0.00000000E+00  0.00000000E+00
  0.00000000E+00  0.00000000E+00  0.00000000E+00
  0.00000000E+00  0.00000000E+00  0.00000000E+00
  0.00000000E+00  0.00000000E+00  0.00000000E+00
  0.00000000E+00  0.00000000E+00  0.00000000E+00
  0.00000000E+00  0.00000000E+00  0.00000000E+00
  0.00000000E+00  0.00000000E+00  0.00000000E+00
  0.00000000E+00  0.00000000E+00  0.00000000E+00
  0.00000000E+00  0.00000000E+00  0.00000000E+00
  0.00000000E+00  0.00000000E+00  0.00000000E+00
  0.00000000E+00  0.00000000E+00  0.00000000E+00
  0.00000000E+00  0.00000000E+00  0.00000000E+00
  0.00000000E+00  0.00000000E+00  0.00000000E+00
  0.00000000E+00  0.00000000E+00  0.00000000E+00
  0.00000000E+00  0.00000000E+00  0.00000000E+00
  0.00000000E+00  0.00000000E+00  0.00000000E+00
  0.00000000E+00  0.00000000E+00  0.00000000E+00
  0.00000000E+00  0.00000000E+00  0.00000000E+00
  0.00000000E+00  0.00000000E+00  0.00000000E+00
  0.00000000E+00  0.00000000E+00  0.00000000E+00
  0.00000000E+00  0.00000000E+00  0.00000000E+00
  0.00000000E+00  0.00000000E+00  0.00000000E+00
  0.00000000E+00  0.00000000E+00  0.00000000E+00
  0.00000000E+00  0.00000000E+00  0.00000000E+00
  0.00000000E+00  0.00000000E+00  0.00000000E+00
  0.00000000E+00  0.00000000E+00  0.00000000E+00
  0.00000000E+00  0.00000000E+00  0.00000000E+00
  0.00000000E+00  0.00000000E+00  0.00000000E+00
  0.00000000E+00  0.00000000E+00  0.00000000E+00
  0.00000000E+00  0.00000000E+00  0.00000000E+00
  0.00000000E+00  0.00000000E+00  0.00000000E+00
  0.00000000E+00  0.00000000E+00  0.00000000E+00
  0.00000000E+00  0.00000000E+00  0.00000000E+00
  0.00000000E+00  0.00000000E+00  0.00000000E+00
  0.00000000E+00  0.00000000E+00  0.00000000E+00
  0.00000000E+00  0.00000000E+00  0.00000000E+00
  0.00000000E+00  0.00000000E+00  0.00000000E+00
  0.00000000E+00  0.00000000E+00  0.00000000E+00
  0.00000000E+00  0.00000000E+00  0.00000000E+00
  0.00000000E+00  0.00000000E+00  0.00000000E+00
  0.00000000E+00  0.00000000E+00  0.00000000E+00
  0.00000000E+00  0.00000000E+00  0.00000000E+00
  0.00000000E+00  0.00000000E+00  0.00000000E+00
  0.00000000E+00  0.00000000E+00  0.00000000E+00
  0.00000000E+00  0.00000000E+00  0.00000000E+00
  0.00000000E+00  0.00000000E+00  0.00000000E+00
  0.00000000E+00  0.00000000E+00  0.00000000E+00
  0.00000000E+00  0.00000000E+00  0.00000000E+00
  0.00000000E+00  0.00000000E+00  0.00000000E+00
