 C Si 
 1.0000000000000000
     8.7433155800000009    0.0000000000000000    0.0000000000000000
     0.0000000000000000    8.7433155800000009    0.0000000000000000
     0.0000000000000000    0.0000000000000000    8.7433155800000009
 C   Si 
  32  32
Cartesian
  1.0389870439149236  1.1059918777543520  1.0920023774902907
  1.0291226177831070  3.2386774977110790  3.2142389407707435
  3.3113427762829071  1.0581733295160956  3.2064435625919927
  3.2855669760059385  3.3004469686766100  1.0383049331815779
  1.1288927005236034  1.1437798419014720  5.5165504229594218
  1.1213841280882340  3.2716872657478064  7.6257958910265646
  3.2287606357265526  1.0843481660280874  7.6741955011274898
  3.3337250474670301  3.2692249286492623  5.4672405567737190
  1.0581633356092777  5.4059605524962535  1.0897258945133161
  1.0926645692653580  7.6529756771432851  3.2354700808561043
  3.2865234769223184  5.4588208038230333  3.2148398631692778
  3.2921960428804287  7.7019504483241139  1.0731866513463448
  1.0525485583071195  5.4368734050335386  5.4630906710423579
  1.1247676044048864  7.6784709527897688  7.7217204178888874
  3.2738210468180173  5.4608650784023274  7.6936250935414536
  3.2050402691249218  7.6525642111974621  5.4341649204837976
  5.5138701923416491  1.0514155297568410  1.1319808852104218
  5.4266504724204401  3.2410982129236876  3.2676077889434065
  7.5484695302085356  1.0771740997105752  3.3345355453196324
  7.6506269424665776  3.2622689703377792  1.1111091080096245
  5.4423396766041945  1.0777421481887646  5.4294409273925339
  5.4278801993431474  3.2848358361649677  7.6392801520086584
  7.6520194227073510  1.0338128020236781  7.6593365860623690
  7.6908881800762385  3.2791145621740707  5.4449887424649663
  5.4219865264436580  5.4929594421331682  1.1408382589576522
  5.4970153380095708  7.6115788257019972  3.2617831658172580
  7.6261499165602560  5.4893507942087423  3.2178052114138795
  7.6035008688752876  7.6249603226778406  1.1628034505382783
  5.4049834257665061  5.4878751667511319  5.4369829399273835
  5.4717835001821511  7.6435714934936021  7.6796501841053564
  7.7110898473398635  5.3758624875375745  7.6958192003492520
  7.7910351488042693  7.6664281020558134  5.3506521734465524
 -0.0371398764889917 -0.0204511199550279 -0.0232005713793104
  0.0810495770240110  2.1758750215924629  2.2159226956598985
  2.1559022564903909  0.0046211955101559  2.1401064765030080
  2.2105752074277341  2.1531872828875995 -0.0341362957942357
  0.0096559240723997 -0.0668593702963275  4.3790988418842769
 -0.0498320524842032  2.2058840778562412  6.5866231476682318
  2.1814269389481895  0.0706596794556336  6.5800041720062419
  2.3397628828736652  2.1179108675739178  4.3494253308923927
 -0.0532762409239147  4.3941675136822402 -0.0366811558368202
  0.0632147627661522  6.6094894157043864  2.2145174234447280
  2.2013421775102069  4.3092029755283034  2.1882127677832917
  2.1557921168452880  6.5818281755792380  0.0454667223885035
 -0.0462636005295206  4.4008231210024755  4.3358709073612696
  0.0377150096087283  6.6141285117425461  6.5360327678438024
  2.2513987711073149  4.3498439986404547  6.5423034118191934
  2.1501434794432814  6.6115024203260715  4.3762621994790534
  4.3094783749595074  0.0469790332081840 -0.0025502476711182
  4.3827733616988249  2.1845503993896851  2.1680343233098376
  6.6301241426913098  0.0069450741301941  2.0969054713946362
  6.6315211812198074  2.2377682852096901  0.1400756948366380
  4.3952040045727019 -0.0485626625573456  4.3488911687434895
  4.3696197389147091  2.1960293072959605  6.5530421696278367
  6.5254345750898848  0.0503649990749544  6.5146146354518786
  6.5717624275611302  2.2416905152695277  4.3539385202854861
  4.3448999115075226  4.2953403971142050  0.0159511836097610
  4.3727864390041296  6.5061258396047803  2.1885509611499345
  6.4851803620115858  4.4124670221601923  2.2013581948500840
  6.6119680185731404  6.5678823146751926  0.0076148701924595
  4.3554785171133439  4.4028349012856838  4.3365102980796237
  4.3512493386559443  6.4790462098791162  6.5987853512355326
  6.4742853265120228  4.3972939162470599  6.6580313707935197
  6.6130530810556367  6.5833576712892761  4.3880428948694652
