 C Si                                   
   1.00000000000000     
     8.7433155800000009    0.0000000000000000    0.0000000000000000
     0.0000000000000000    8.7433155800000009    0.0000000000000000
     0.0000000000000000    0.0000000000000000    8.7433155800000009
   C    Si
    32    32
Direct
  0.1273023893680403  0.1236907466400083  0.1258863297232864
  0.1256681377831654  0.3745480040525067  0.3748429877614257
  0.3765449797695624  0.1260243950157474  0.3744632844319895
  0.3762631355720103  0.3706769743179024  0.1275759360524944
  0.1259815315148813  0.1266752701719156  0.6242262764826094
  0.1228897391825186  0.3764109246470611  0.8710414597084366
  0.3767216537938722  0.1260196491561985  0.8752231732897400
  0.3756428074606575  0.3749107613390024  0.6249652667839740
  0.1229611979895822  0.6256328717702218  0.1289698364023053
  0.1239511983988208  0.8753641856940888  0.3759147377080581
  0.3737584389720467  0.6238940403446378  0.3759212264657279
  0.3780851829856502  0.8753940977500179  0.1259445027778483
  0.1247519864687945  0.6249789588537382  0.6199165547054761
  0.1261505346793044  0.8746729131158304  0.8721375328344365
  0.3744424579918189  0.6260316597044593  0.8803779245485401
  0.3752404959059845  0.8729230845844782  0.6233478335976486
  0.6237516585720755  0.1219809896955724  0.1211055625599045
  0.6294442846471000  0.3704401445461087  0.3724823574027241
  0.8781076032664004  0.1259604481526679  0.3751562568875357
  0.8728082287192862  0.3748774781304505  0.1243358618461698
  0.6304414358568167  0.1258897496816047  0.6201642121332256
  0.6273362823508748  0.3765312536418648  0.8775452693496462
  0.8750304687372434  0.1240861456317930  0.8715149288363051
  0.8735987519129367  0.3739358945634592  0.6248907502981851
  0.6202775187364864  0.6246434112343024  0.1247338755494170
  0.6263139082048141  0.8805363070213730  0.3737268070561655
  0.8731280612853851  0.6281438667304329  0.3733601164059266
  0.8719959429234407  0.8733288643445150  0.1238724075475162
  0.6260976527285251  0.6270941564187709  0.6254231165640647
  0.6256880928221236  0.8708254538869937  0.8796599415129904
  0.8763922561344160  0.6256327097654832  0.8774839284279565
  0.8753367297274934  0.8741928029922548  0.6276369660978389
  0.9983128017086003  0.0040462141202227  0.0001683343602963
  0.9985875983510155  0.2580232104620848  0.2516497952720584
  0.2503868384652748  0.0026456073095247  0.2502982951458392
  0.2469688333204871  0.2508691020367948  0.9999283540434689
  0.9951201453148641  0.0002677454836899  0.4984887483631724
  0.9994706355660909  0.2516566575155181  0.7476851938924796
  0.2514676999964678  0.0042955683015720  0.7503391914655211
  0.2527631660486023  0.2542784156878497  0.5022364443860283
  0.9994181249722089  0.4992771257638466  0.0022564399041158
  0.9967859740341396  0.7463802009500995  0.2489105481323719
  0.2512621711847487  0.4992902510247461  0.2469343977287579
  0.2479458199221085  0.7485365562413620  0.9962613164957972
  0.9964645941056034  0.5029205674388422  0.4942082520367208
  0.9988239077648373  0.7489872581094659  0.7497862020025678
  0.2521868038911990  0.5019412218588570  0.7500397623639472
  0.2459189518562681  0.7484278984273374  0.4976227271265472
  0.5001684885035615  0.0027738300666940  0.9967718695143972
  0.5025021571042103  0.2510651513892981  0.2522651786277947
  0.7468533037042775  0.9954677025392513  0.2468162564936520
  0.7547756670102572  0.2529919672628225  0.9956492681050548
  0.5001370850468518  0.9987548145102636  0.4982900632954568
  0.4989127605278298  0.2496345128170248  0.7447233243221660
  0.7521356074343473  0.9984097579168676  0.7472386320956446
  0.7535866444317705  0.2497963658607176  0.4990122802685164
  0.5020389440660296  0.4996804535612966  0.0008427720038355
  0.4984301625606165  0.7494391565779708  0.2483285446779817
  0.7490423946971418  0.5030159129611320  0.2466255040921581
  0.7498416958047187  0.7532962104930689  0.9999274561922888
  0.4950664828009579  0.5025290650191252  0.4974892642669957
  0.5008390777007534  0.7474929489391897  0.7496761822814193
  0.7513590937444974  0.4995919823114292  0.7482445515602762
  0.7491638484889052  0.7482475521404055  0.5049812766604802
 
  0.00000000E+00  0.00000000E+00  0.00000000E+00
  0.00000000E+00  0.00000000E+00  0.00000000E+00
  0.00000000E+00  0.00000000E+00  0.00000000E+00
  0.00000000E+00  0.00000000E+00  0.00000000E+00
  0.00000000E+00  0.00000000E+00  0.00000000E+00
  0.00000000E+00  0.00000000E+00  0.00000000E+00
  0.00000000E+00  0.00000000E+00  0.00000000E+00
  0.00000000E+00  0.00000000E+00  0.00000000E+00
  0.00000000E+00  0.00000000E+00  0.00000000E+00
  0.00000000E+00  0.00000000E+00  0.00000000E+00
  0.00000000E+00  0.00000000E+00  0.00000000E+00
  0.00000000E+00  0.00000000E+00  0.00000000E+00
  0.00000000E+00  0.00000000E+00  0.00000000E+00
  0.00000000E+00  0.00000000E+00  0.00000000E+00
  0.00000000E+00  0.00000000E+00  0.00000000E+00
  0.00000000E+00  0.00000000E+00  0.00000000E+00
  0.00000000E+00  0.00000000E+00  0.00000000E+00
  0.00000000E+00  0.00000000E+00  0.00000000E+00
  0.00000000E+00  0.00000000E+00  0.00000000E+00
  0.00000000E+00  0.00000000E+00  0.00000000E+00
  0.00000000E+00  0.00000000E+00  0.00000000E+00
  0.00000000E+00  0.00000000E+00  0.00000000E+00
  0.00000000E+00  0.00000000E+00  0.00000000E+00
  0.00000000E+00  0.00000000E+00  0.00000000E+00
  0.00000000E+00  0.00000000E+00  0.00000000E+00
  0.00000000E+00  0.00000000E+00  0.00000000E+00
  0.00000000E+00  0.00000000E+00  0.00000000E+00
  0.00000000E+00  0.00000000E+00  0.00000000E+00
  0.00000000E+00  0.00000000E+00  0.00000000E+00
  0.00000000E+00  0.00000000E+00  0.00000000E+00
  0.00000000E+00  0.00000000E+00  0.00000000E+00
  0.00000000E+00  0.00000000E+00  0.00000000E+00
  0.00000000E+00  0.00000000E+00  0.00000000E+00
  0.00000000E+00  0.00000000E+00  0.00000000E+00
  0.00000000E+00  0.00000000E+00  0.00000000E+00
  0.00000000E+00  0.00000000E+00  0.00000000E+00
  0.00000000E+00  0.00000000E+00  0.00000000E+00
  0.00000000E+00  0.00000000E+00  0.00000000E+00
  0.00000000E+00  0.00000000E+00  0.00000000E+00
  0.00000000E+00  0.00000000E+00  0.00000000E+00
  0.00000000E+00  0.00000000E+00  0.00000000E+00
  0.00000000E+00  0.00000000E+00  0.00000000E+00
  0.00000000E+00  0.00000000E+00  0.00000000E+00
  0.00000000E+00  0.00000000E+00  0.00000000E+00
  0.00000000E+00  0.00000000E+00  0.00000000E+00
  0.00000000E+00  0.00000000E+00  0.00000000E+00
  0.00000000E+00  0.00000000E+00  0.00000000E+00
  0.00000000E+00  0.00000000E+00  0.00000000E+00
  0.00000000E+00  0.00000000E+00  0.00000000E+00
  0.00000000E+00  0.00000000E+00  0.00000000E+00
  0.00000000E+00  0.00000000E+00  0.00000000E+00
  0.00000000E+00  0.00000000E+00  0.00000000E+00
  0.00000000E+00  0.00000000E+00  0.00000000E+00
  0.00000000E+00  0.00000000E+00  0.00000000E+00
  0.00000000E+00  0.00000000E+00  0.00000000E+00
  0.00000000E+00  0.00000000E+00  0.00000000E+00
  0.00000000E+00  0.00000000E+00  0.00000000E+00
  0.00000000E+00  0.00000000E+00  0.00000000E+00
  0.00000000E+00  0.00000000E+00  0.00000000E+00
  0.00000000E+00  0.00000000E+00  0.00000000E+00
  0.00000000E+00  0.00000000E+00  0.00000000E+00
  0.00000000E+00  0.00000000E+00  0.00000000E+00
  0.00000000E+00  0.00000000E+00  0.00000000E+00
  0.00000000E+00  0.00000000E+00  0.00000000E+00
