 C Si 
 1.0000000000000000
     8.7433155800000009    0.0000000000000000    0.0000000000000000
     0.0000000000000000    8.7433155800000009    0.0000000000000000
     0.0000000000000000    0.0000000000000000    8.7433155800000009
 C   Si 
  32  32
Cartesian
  1.1130449643328106  1.0814672321994163  1.1006639079786551
  1.0987561869891374  3.2747913992902156  3.2773705349482105
  3.2922515881900041  1.1018710564012528  3.2740506689122135
  3.2897873354264004  3.2409457647009798  1.1154366693208291
  1.1014962872863363  1.1075618632948463  5.4578073286157753
  1.0744637712166569  3.2910795019488575  7.6157903654947123
  3.2937963049393089  1.1018295618535299  7.6523524070012279
  3.2843636109857335  3.2779631007249392  5.4642685540311939
  1.0750885581177663  5.4701056351087427  1.1276239799663392
  1.0837444441200748  7.6535853229531385  3.2867411829544633
  3.2678879826207807  5.4549024832144282  3.2867979162105150
  3.3057180709656047  7.6538468534977921  1.1011725333528899
  1.0907459869285649  5.4643882681180536  5.4201260710563037
  1.1029739352869161  7.6475413086496422  7.6253736787340767
  3.2738685767733959  5.4735923638672341  7.6974220239933082
  3.2808460741017353  7.6322420055891458  5.4501268252535766
  5.4536575944440386  1.0665182876691381  1.0588641519547062
  5.5034300206969693  3.2388750872674397  3.2567307987543832
  7.6775718885555522  1.1013119487969907  3.2801095457793021
  7.6312377845135630  3.2776720951290792  1.0871076780323559
  5.5121484284044584  1.1006938097535044  5.4222914181028825
  5.4849990913777118  3.2921315763238197  7.6726552256600549
  7.6506675302850198  1.0849243303645819  7.6199300554970533
  7.6381495782689628  3.2694395328579522  5.4636170328800064
  5.4232820934924710  5.4614544693892437  1.0905876374450241
  5.4760601515778138  7.6988068119356043  3.2676114147978059
  7.6340341815716872  5.4920600564656148  3.2644053227225478
  7.6241357134593359  7.6357898660871255  1.0830555508422932
  5.4741693617027494  5.4828821079431842  5.4682716791467278
  5.4705884501921433  7.6139017584307229  7.6911444717324198
  7.6625740672513984  5.4701042186501532  7.6721189026237591
  7.6533452667726616  7.6433435543260604  5.4876280642671640
 -0.0147517071077208  0.0353773269573644  0.0014718004350162
 -0.0123490733427898  2.2559783560347944  2.2002535757060264
  2.1892111457803525  0.0231313796079342  2.1884369835960809
  2.1593264481454368  2.1934277283789170 -0.0006264232079869
 -0.0426661094966603  0.0023409832589914  4.3584444400184070
 -0.0046284003025202  2.2003135744661648  6.5372476046954269
  2.1986614592459088  0.0375575092560683  6.5604523430251191
  2.2099881277628821  2.2232364335412766  4.3912117290441559
 -0.0050875169961086  4.3653374724286458  0.0197287661689907
 -0.0281012433018196  6.5258376395705238  2.1763034735120868
  2.1968644559842145  4.3654522307267776  2.1590253668997543
  2.1678685503208683  6.5446913343846260 -0.0326884897309914
 -0.0309111694380923  4.3971932327904621  4.3210187097972232
 -0.0102829455631887  6.5486319630499761  6.5556173816380792
  2.2049488115323417  4.3886305053227961  6.5578343398962238
  2.1501470031821968  6.5437413048263746  4.3508725430476103
  4.3731309381582610  0.0242524716383781 -0.0282245635690734
  4.3935349391928318  2.1951418497370923  2.2056340665878662
  6.5299741262520534 -0.0396273070017722  2.1579924207982115
  6.5992418487756908  2.2119886089839098 -0.0380398219614859
  4.3728563678259000 -0.0108870496923990  4.3567072737703647
  4.3621517121837545  2.1826333252188239  6.5113510443354148
  6.5761589747535023 -0.0139039883814483  6.5333431739797092
  6.5888458491402382  2.1840484574574166  4.3630218446830540
  4.3894849214192799  4.3688638946439813  0.0073686215915481
  4.3579322058581624  6.5525830539702046  2.1712148336417370
  6.5491140396360441  4.3980268687809865  2.1563246123543109
  6.5561025814630298  6.5863064935590350 -0.0006342734042078
  4.3285224922093883  4.3937702035845598  4.3497056351483785
  4.3789941111338555  6.5355667464001703  6.5546554444960332
  6.5693696705109659  4.3680903625866039  6.5421382453070605
  6.5501759484658102  6.5421644803260905  4.4152106638338688
