 C Si                                   
   1.00000000000000     
     8.7433155800000009    0.0000000000000000    0.0000000000000000
     0.0000000000000000    8.7433155800000009    0.0000000000000000
     0.0000000000000000    0.0000000000000000    8.7433155800000009
   C    Si
    32    32
Direct
  0.1249496620759132  0.1235259754399678  0.1183109891719596
  0.1262483471836120  0.3758733745194789  0.3727163528987987
  0.3730205857978603  0.1270917114191974  0.3719889258122748
  0.3731584704192201  0.3681777796939159  0.1268322501745160
  0.1253703286684029  0.1232505256707412  0.6256025547122235
  0.1237240095474448  0.3700617685515510  0.8792900642641399
  0.3740198272428614  0.1228984692498827  0.8759325059431404
  0.3694443054815295  0.3784094251038894  0.6266450382822981
  0.1302157789006060  0.6280329175503283  0.1271721227652947
  0.1252763831844561  0.8780688234931091  0.3806238991773512
  0.3719990499716843  0.6233438884328208  0.3758770217823084
  0.3754039188144276  0.8698727066853635  0.1267105414380936
  0.1329611181562171  0.6257951282386855  0.6229984446822598
  0.1247309113063650  0.8756472633564556  0.8708612168602556
  0.3763656752234112  0.6238908345342224  0.8741372225629007
  0.3718678267406759  0.8685822613896192  0.6236567540463227
  0.6250710529594343  0.1229435108723536  0.1258442864275438
  0.6250866975635887  0.3714895649436656  0.3791502920414587
  0.8737725647690482  0.1290611793863192  0.3739804535460536
  0.8776308080386599  0.3732035121230552  0.1229046862050609
  0.6229719135853742  0.1264459803057036  0.6299309819341943
  0.6231145352395373  0.3720823375090845  0.8733658216808067
  0.8728185206587185  0.1256873842882271  0.8735786164563777
  0.8736482840716491  0.3686642994230382  0.6199856684163834
  0.6257504042110469  0.6215821531581796  0.1265745288083266
  0.6221025429614642  0.8783298933563941  0.3706345030884464
  0.8755235667811334  0.6229992074565871  0.3789915039054179
  0.8748017460931905  0.8745326529211113  0.1259712347211632
  0.6293893490552662  0.6276320843997993  0.6210234440458464
  0.6273672444978828  0.8796735514747880  0.8709556818466169
  0.8708421037611274  0.6271858297412365  0.8723349787499259
  0.8799745367339042  0.8802219990364009  0.6265789058062339
  0.0004971997355199  0.0014698430388975  0.9959110296102693
  0.9975673827281923  0.2436077475353784  0.2479681523311683
  0.2555056445880837  0.0013012303188376  0.2518401603394125
  0.2475338025978289  0.2465249748152729  0.0022246001637427
  0.9985971415537378  0.9942107727514227  0.5011788982520500
  0.0033962628971693  0.2542425437858853  0.7502326371802326
  0.2488266671931996  0.0033583084001307  0.7542395001520958
  0.2540750595132053  0.2489429989695680  0.5032308227489182
  0.0036712433776316  0.5016021900085050  0.0030023254152596
  0.0004613215796141  0.7503664633235161  0.2536140879424309
  0.2494160829837568  0.4950259003392716  0.2425310076820040
  0.2427849761603298  0.7554992039239536  0.9945075957091873
  0.0012720728343183  0.4997814474166233  0.5019779709029137
  0.0005931392831329  0.7457781936878902  0.7534281719594489
  0.2484773221478278  0.5063960791441673  0.7508299446045044
  0.2494330533095876  0.7485091767021430  0.5019013578740541
  0.5027167634066316  0.0020550526249750  0.9997682242594692
  0.5005554285955327  0.2500889551352259  0.2528975121286976
  0.7540763394275274  0.9996134808777271  0.2515218978518377
  0.7507862801903045  0.2488492629119605  0.0066732117455288
  0.4978178283273564  0.9987750258970465  0.4981477120662063
  0.4952272949087160  0.2476388515031047  0.7461228627182237
  0.7553563006344035  0.9997208743814099  0.7507050835040019
  0.7447487499442076  0.2540699622854987  0.5001313535310388
  0.4997665633176425  0.4981591879154976  0.9954450688625442
  0.4976369634440232  0.7511524349584988  0.2457397141649480
  0.7518175172458896  0.5014848515822479  0.2506367844507267
  0.7508326114225667  0.7482601242165074  0.0010655375485626
  0.4986845346706943  0.4993456604269184  0.5028430823112089
  0.4993516990200391  0.7484821717534729  0.7489168286772951
  0.7501391913279463  0.5006846769260207  0.7501022833343640
  0.7470517550298581  0.7522434418362209  0.5081836709687764
 
  0.00000000E+00  0.00000000E+00  0.00000000E+00
  0.00000000E+00  0.00000000E+00  0.00000000E+00
  0.00000000E+00  0.00000000E+00  0.00000000E+00
  0.00000000E+00  0.00000000E+00  0.00000000E+00
  0.00000000E+00  0.00000000E+00  0.00000000E+00
  0.00000000E+00  0.00000000E+00  0.00000000E+00
  0.00000000E+00  0.00000000E+00  0.00000000E+00
  0.00000000E+00  0.00000000E+00  0.00000000E+00
  0.00000000E+00  0.00000000E+00  0.00000000E+00
  0.00000000E+00  0.00000000E+00  0.00000000E+00
  0.00000000E+00  0.00000000E+00  0.00000000E+00
  0.00000000E+00  0.00000000E+00  0.00000000E+00
  0.00000000E+00  0.00000000E+00  0.00000000E+00
  0.00000000E+00  0.00000000E+00  0.00000000E+00
  0.00000000E+00  0.00000000E+00  0.00000000E+00
  0.00000000E+00  0.00000000E+00  0.00000000E+00
  0.00000000E+00  0.00000000E+00  0.00000000E+00
  0.00000000E+00  0.00000000E+00  0.00000000E+00
  0.00000000E+00  0.00000000E+00  0.00000000E+00
  0.00000000E+00  0.00000000E+00  0.00000000E+00
  0.00000000E+00  0.00000000E+00  0.00000000E+00
  0.00000000E+00  0.00000000E+00  0.00000000E+00
  0.00000000E+00  0.00000000E+00  0.00000000E+00
  0.00000000E+00  0.00000000E+00  0.00000000E+00
  0.00000000E+00  0.00000000E+00  0.00000000E+00
  0.00000000E+00  0.00000000E+00  0.00000000E+00
  0.00000000E+00  0.00000000E+00  0.00000000E+00
  0.00000000E+00  0.00000000E+00  0.00000000E+00
  0.00000000E+00  0.00000000E+00  0.00000000E+00
  0.00000000E+00  0.00000000E+00  0.00000000E+00
  0.00000000E+00  0.00000000E+00  0.00000000E+00
  0.00000000E+00  0.00000000E+00  0.00000000E+00
  0.00000000E+00  0.00000000E+00  0.00000000E+00
  0.00000000E+00  0.00000000E+00  0.00000000E+00
  0.00000000E+00  0.00000000E+00  0.00000000E+00
  0.00000000E+00  0.00000000E+00  0.00000000E+00
  0.00000000E+00  0.00000000E+00  0.00000000E+00
  0.00000000E+00  0.00000000E+00  0.00000000E+00
  0.00000000E+00  0.00000000E+00  0.00000000E+00
  0.00000000E+00  0.00000000E+00  0.00000000E+00
  0.00000000E+00  0.00000000E+00  0.00000000E+00
  0.00000000E+00  0.00000000E+00  0.00000000E+00
  0.00000000E+00  0.00000000E+00  0.00000000E+00
  0.00000000E+00  0.00000000E+00  0.00000000E+00
  0.00000000E+00  0.00000000E+00  0.00000000E+00
  0.00000000E+00  0.00000000E+00  0.00000000E+00
  0.00000000E+00  0.00000000E+00  0.00000000E+00
  0.00000000E+00  0.00000000E+00  0.00000000E+00
  0.00000000E+00  0.00000000E+00  0.00000000E+00
  0.00000000E+00  0.00000000E+00  0.00000000E+00
  0.00000000E+00  0.00000000E+00  0.00000000E+00
  0.00000000E+00  0.00000000E+00  0.00000000E+00
  0.00000000E+00  0.00000000E+00  0.00000000E+00
  0.00000000E+00  0.00000000E+00  0.00000000E+00
  0.00000000E+00  0.00000000E+00  0.00000000E+00
  0.00000000E+00  0.00000000E+00  0.00000000E+00
  0.00000000E+00  0.00000000E+00  0.00000000E+00
  0.00000000E+00  0.00000000E+00  0.00000000E+00
  0.00000000E+00  0.00000000E+00  0.00000000E+00
  0.00000000E+00  0.00000000E+00  0.00000000E+00
  0.00000000E+00  0.00000000E+00  0.00000000E+00
  0.00000000E+00  0.00000000E+00  0.00000000E+00
  0.00000000E+00  0.00000000E+00  0.00000000E+00
  0.00000000E+00  0.00000000E+00  0.00000000E+00
