 C Si 
 1.0000000000000000
     8.7433155800000009    0.0000000000000000    0.0000000000000000
     0.0000000000000000    8.7433155800000009    0.0000000000000000
     0.0000000000000000    0.0000000000000000    8.7433155800000009
 C   Si 
  32  32
Cartesian
  1.0924743271440942  1.0800265855989799  1.0344303149124321
  1.1038291408797138  3.2863795315433335  3.2587766952208290
  3.2614366994671462  1.1112029405403525  3.2524165706419184
  3.2626422682253069  3.2190945174076182  1.1089343889973049
  1.0961523479161583  1.0776182413402038  5.4698405635032072
  1.0817580602962544  3.2355668265391113  7.6879105182198826
  3.2701733827613961  1.0745401009506748  7.6585543262411111
  3.2301681520589471  3.3085530221296504  5.4789553263433310
  1.1385176484235084  5.4910899927706227  1.1119060023154546
  1.0953309529026798  7.6772328247595469  3.3279148677976678
  3.2525050893626335  5.4500923314324377  3.2864114207132804
  3.2822749321632432  7.6055715889788980  1.1078702511059388
  1.1625210159094457  5.4715242946174101  5.4470720077061925
  1.0905617201325359  7.6560603602888602  7.6142144453920260
  3.2906838719580889  5.4548744538022662  7.6428575970921111
  3.2513577632425221  7.5942888185194786  5.4528278142254578
  5.4651934759472294  1.0749339140701177  1.1002963101759320
  5.4653302616584734  3.2480505009793910  3.3150306555676554
  7.6396692789217635  1.1284226205016015  3.2698291261046690
  7.6734031174124331  3.2630360820562139  1.0745944577517201
  5.4468400379534190  1.1055571096352370  5.5076853686699332
  5.4480870240842885  3.2532332985859780  7.6361129957413008
  7.6313277701879052  1.0989244652567243  7.6379735276178629
  7.6385826535638861  3.2233483129352591  5.4207303540416492
  5.4711332583297736  5.4346889239578839  1.1066810497610124
  5.4392388562325964  7.6795154409626987  3.2405744253387598
  7.6549788420946792  5.4470786768828354  3.3136423207838694
  7.6486677360278188  7.6463149695038721  1.1014062591693836
  5.5029497014809818  5.4875853820406153  5.4298039538712812
  5.4852698031999978  7.6912634679234237  7.6150403825790622
  7.6140473335346162  5.4836836367317501  7.6271000106831934
  7.6938950770288059  7.6960587180336866  5.4783771092349758
  0.0043471741939383  0.0128513015421233 -0.0357511585146633
 -0.0212691404927730  2.1299394144348023  2.1680638096209117
  2.2339664831049579  0.0113770673198821  2.2019179975652570
  2.1642661528302138  2.1554456531614630  0.0194503812709377
 -0.0122656341097362 -0.0506170407986699  4.3819652694543807
  0.0296945983026003  2.2229227941819780  6.5595207052824041
  2.1755700759897554  0.0293627501572943  6.5945539727312044
  2.2214584263312540  2.1765872014225360  4.3999058928768227
  0.0320988394216105  4.3856662428634676  0.0262502785794652
  0.0040334801544392  6.5606907894859834  2.2174280064145608
  2.1807235242544452  4.3281676669398568  2.1205251380991426
  2.1227456646525624  6.6055679603459199 -0.0480218240075217
  0.0111221342311665  4.3697469157927022  4.3889518138122066
  0.0051860039353057  6.5205741000955992  6.5874602743039556
  2.1725156420117835  4.4275807284320967  6.5647431525910767
  2.1808719011686799  6.5444519464327922  4.3882819619233713
  4.3954113098203544  0.0179679736336506 -0.0020264884432251
  4.3765140774929199  2.1866066578197532  2.2111627579381010
  6.5931274070260963 -0.0033794586637245  2.1991353281991293
  6.5643613808381547  2.1757676374896429  0.0583459962233437
  4.3525783744163409 -0.0107103351594430  4.3554626520498259
  4.3299285232166502  2.1651846285603900  6.5235876501984311
  6.6043185117879331 -0.0024404833698265  6.5636514525857477
  6.5115733485727070  2.2214138596608266  4.3728062553744289
  4.3696167794182230  4.3555629890217187 -0.0398252003799693
  4.3509970156640341  6.5675627875275513  2.1485798714831561
  6.5733778118529251  4.3846403159730745  2.1913965024091580
  6.5647664694229908  6.5422744019548968  0.0093163310494006
  4.3601562614913467  4.3659366926160486  4.3965157558668135
  4.3659894899414038  6.5442158336443690  6.5480161762983853
  6.5587036787062409  4.3776441364345251  6.5583809804709494
  6.5317092488189124  6.5771018049594270  4.4432102078828928
