 C Si                                   
   1.00000000000000     
     8.7433155800000009    0.0000000000000000    0.0000000000000000
     0.0000000000000000    8.7433155800000009    0.0000000000000000
     0.0000000000000000    0.0000000000000000    8.7433155800000009
   C    Si
    32    32
Direct
  0.1258162067051956  0.1248064576387122  0.1220504577261607
  0.1281658269924435  0.3747693582210658  0.3706464796145923
  0.3728801286571155  0.1264014058900926  0.3719771820089619
  0.3737315396990155  0.3715003405100106  0.1270441931755713
  0.1261867719322964  0.1199161232366137  0.6265514081883055
  0.1275155152821625  0.3774774593872934  0.8739615857618759
  0.3753285472068910  0.1232976888053017  0.8790443479190415
  0.3731243262345885  0.3727624980440751  0.6293110314604320
  0.1219025293699829  0.6282219599546011  0.1236525603136798
  0.1240477134467639  0.8777859798645267  0.3791648459411832
  0.3746539288962936  0.6277377261034047  0.3778045185328480
  0.3764428048149284  0.8680850913229747  0.1218193962100571
  0.1255694817843533  0.6240088832076438  0.6274359423259881
  0.1245210561196757  0.8749420117589324  0.8786637493237848
  0.3773775366502079  0.6178704868022180  0.8764443510347562
  0.3759246161845340  0.8694059917185157  0.6246833025304923
  0.6260836934409539  0.1257169604298198  0.1276836566136410
  0.6269103454685663  0.3743953124421395  0.3782965410522934
  0.8787703692794295  0.1245349581755661  0.3757761707384546
  0.8745058565131174  0.3745481326647848  0.1252858542716382
  0.6261353656930311  0.1276294553821202  0.6252431515252184
  0.6259653139755841  0.3759810997946786  0.8735849062271441
  0.8760897549778690  0.1203434104922252  0.8771595842932669
  0.8757879597853915  0.3737439814491950  0.6230286289574778
  0.6258969258641116  0.6269141302911265  0.1233462415470967
  0.6271346702851446  0.8763133097763216  0.3719923935246996
  0.8771757901403276  0.6225258152065862  0.3761760698110592
  0.8780494544818609  0.8739601734920939  0.1245235162070983
  0.6210978660718567  0.6205316416917768  0.6260227868049668
  0.6218928618521957  0.8781395910533973  0.8742882228137603
  0.8758866562198335  0.6239721252929229  0.8777855003136779
  0.8764410203044193  0.8738480817015244  0.6233981230206567
  0.0040191623325825  0.9982635122301531  0.0024423047587732
  0.9999507262828971  0.2471232280968678  0.2487346565182449
  0.2506970664139061  0.9957159136439060  0.2536867704770174
  0.2483149629804799  0.2525703227626934  0.0025105828337004
  0.9985113254686553  0.9972309422507095  0.5005780122931185
  0.0005861024159799  0.2486250751803993  0.7486228715934331
  0.2465475099446408  0.9975071581684887  0.7482001850450857
  0.2505645997103301  0.2518992452225888  0.5004192104831375
  0.0000642858934938  0.4972098755425236  0.9982943141552809
  0.9973552352323622  0.7477699627126455  0.2501750861366290
  0.2464765202347223  0.4976961277926648  0.2489714881182081
  0.2509695728488097  0.7519788343735812  0.0014862866991692
  0.0020009217125363  0.4965425556786300  0.4992046307738391
  0.0033554532701174  0.7456774414333154  0.7506505362368543
  0.2488013554114374  0.4993835605460148  0.7495197959879150
  0.2485236264539665  0.7478119472555136  0.5026028119898882
  0.5018582836183896  0.0043410157400672  0.9984408751151008
  0.4962111834058902  0.2548060830156587  0.2520317655179340
  0.7452158715694353  0.0018635719929705  0.2508083544662796
  0.7526028752578569  0.2449565257627739  0.9977678213312728
  0.4951505881559726  0.9964289427145374  0.4996980222640346
  0.4958691920227878  0.2502945740981062  0.7473451201570711
  0.7509594802953217  0.0023078492555797  0.7568512825999889
  0.7472168104412589  0.2534712563828450  0.4991147411264265
  0.4967527612864160  0.4969262101661585  0.9986828080982377
  0.5035457437119959  0.7538951758901860  0.2457646242405147
  0.7489459839423631  0.5010761649593434  0.2532147545650218
  0.7527419385622736  0.7520261002908413  0.0002934418671714
  0.5049333644111655  0.5017551726157308  0.5024957669477743
  0.4974549842920197  0.7490140547066417  0.7448931844482658
  0.7516674597571580  0.5010116932916802  0.7449843337847000
  0.7500095848494936  0.7449811082687035  0.4978339213957810
 
  0.00000000E+00  0.00000000E+00  0.00000000E+00
  0.00000000E+00  0.00000000E+00  0.00000000E+00
  0.00000000E+00  0.00000000E+00  0.00000000E+00
  0.00000000E+00  0.00000000E+00  0.00000000E+00
  0.00000000E+00  0.00000000E+00  0.00000000E+00
  0.00000000E+00  0.00000000E+00  0.00000000E+00
  0.00000000E+00  0.00000000E+00  0.00000000E+00
  0.00000000E+00  0.00000000E+00  0.00000000E+00
  0.00000000E+00  0.00000000E+00  0.00000000E+00
  0.00000000E+00  0.00000000E+00  0.00000000E+00
  0.00000000E+00  0.00000000E+00  0.00000000E+00
  0.00000000E+00  0.00000000E+00  0.00000000E+00
  0.00000000E+00  0.00000000E+00  0.00000000E+00
  0.00000000E+00  0.00000000E+00  0.00000000E+00
  0.00000000E+00  0.00000000E+00  0.00000000E+00
  0.00000000E+00  0.00000000E+00  0.00000000E+00
  0.00000000E+00  0.00000000E+00  0.00000000E+00
  0.00000000E+00  0.00000000E+00  0.00000000E+00
  0.00000000E+00  0.00000000E+00  0.00000000E+00
  0.00000000E+00  0.00000000E+00  0.00000000E+00
  0.00000000E+00  0.00000000E+00  0.00000000E+00
  0.00000000E+00  0.00000000E+00  0.00000000E+00
  0.00000000E+00  0.00000000E+00  0.00000000E+00
  0.00000000E+00  0.00000000E+00  0.00000000E+00
  0.00000000E+00  0.00000000E+00  0.00000000E+00
  0.00000000E+00  0.00000000E+00  0.00000000E+00
  0.00000000E+00  0.00000000E+00  0.00000000E+00
  0.00000000E+00  0.00000000E+00  0.00000000E+00
  0.00000000E+00  0.00000000E+00  0.00000000E+00
  0.00000000E+00  0.00000000E+00  0.00000000E+00
  0.00000000E+00  0.00000000E+00  0.00000000E+00
  0.00000000E+00  0.00000000E+00  0.00000000E+00
  0.00000000E+00  0.00000000E+00  0.00000000E+00
  0.00000000E+00  0.00000000E+00  0.00000000E+00
  0.00000000E+00  0.00000000E+00  0.00000000E+00
  0.00000000E+00  0.00000000E+00  0.00000000E+00
  0.00000000E+00  0.00000000E+00  0.00000000E+00
  0.00000000E+00  0.00000000E+00  0.00000000E+00
  0.00000000E+00  0.00000000E+00  0.00000000E+00
  0.00000000E+00  0.00000000E+00  0.00000000E+00
  0.00000000E+00  0.00000000E+00  0.00000000E+00
  0.00000000E+00  0.00000000E+00  0.00000000E+00
  0.00000000E+00  0.00000000E+00  0.00000000E+00
  0.00000000E+00  0.00000000E+00  0.00000000E+00
  0.00000000E+00  0.00000000E+00  0.00000000E+00
  0.00000000E+00  0.00000000E+00  0.00000000E+00
  0.00000000E+00  0.00000000E+00  0.00000000E+00
  0.00000000E+00  0.00000000E+00  0.00000000E+00
  0.00000000E+00  0.00000000E+00  0.00000000E+00
  0.00000000E+00  0.00000000E+00  0.00000000E+00
  0.00000000E+00  0.00000000E+00  0.00000000E+00
  0.00000000E+00  0.00000000E+00  0.00000000E+00
  0.00000000E+00  0.00000000E+00  0.00000000E+00
  0.00000000E+00  0.00000000E+00  0.00000000E+00
  0.00000000E+00  0.00000000E+00  0.00000000E+00
  0.00000000E+00  0.00000000E+00  0.00000000E+00
  0.00000000E+00  0.00000000E+00  0.00000000E+00
  0.00000000E+00  0.00000000E+00  0.00000000E+00
  0.00000000E+00  0.00000000E+00  0.00000000E+00
  0.00000000E+00  0.00000000E+00  0.00000000E+00
  0.00000000E+00  0.00000000E+00  0.00000000E+00
  0.00000000E+00  0.00000000E+00  0.00000000E+00
  0.00000000E+00  0.00000000E+00  0.00000000E+00
  0.00000000E+00  0.00000000E+00  0.00000000E+00
