 C Si 
 1.0000000000000000
     8.7433155800000009    0.0000000000000000    0.0000000000000000
     0.0000000000000000    8.7433155800000009    0.0000000000000000
     0.0000000000000000    0.0000000000000000    8.7433155800000009
 C   Si 
  32  32
Cartesian
  1.1000508003020455  1.0912222455571461  1.0671256685832977
  1.1205942719665940  3.2767267686408283  3.2406791398864314
  3.2602086383601669  1.1051673814527421  3.2523138908634803
  3.2676527937877653  3.2481447151564975  1.1107874735405041
  1.1032907690255340  1.0484645085878914  5.4781366888837626
  1.1149083914582540  3.3004045517597680  7.6413219491133120
  3.2816159344127511  1.0780306035093872  7.6857621426715204
  3.2623437348439035  3.2591801567885117  5.5022649460338799
  1.0658322842819583  5.4927428501692228  1.0811333570974795
  1.0845883056424517  7.6747598336550515  3.3151579049058468
  3.2757175336271911  5.4885090407936898  3.3032641330826236
  3.2913582403172570  7.5899419037298941  1.0651054248295606
  1.0978936064576632  5.4559065906077890  5.4858704499907835
  1.0887268900091969  7.6498941230084077  7.6824344490438605
  3.2995308957357565  5.4022366536799957  7.6630295494051541
  3.2868275535917486  7.6014909527378238  5.4618032515806876
  5.4740473112462658  1.0991830587963165  1.1163785041814021
  5.4812749907984868  3.2734563683543176  3.3075660412426457
  7.6833666609632143  1.0888484400710698  3.2855296482102991
  7.6460806800523766  3.2747925237879172  1.0954137616068189
  5.4744990980529016  1.1159046057094317  5.4666981880187384
  5.4730122822222933  3.2873214076203681  7.6380285210686170
  7.6599292041763984  1.0522004159069844  7.6692830594976416
  7.6572905135680367  3.2677615759359937  5.4473359183499515
  5.4724143433817982  5.4813080826965708  1.0784551154531823
  5.4832363334622443  7.6618838143286920  3.2524468899460168
  7.6694247523327377  5.4429396590479522  3.2890260920021803
  7.6770634753817752  7.6413096011929511  1.0887483993298945
  5.4304546491308479  5.4255039706866803  5.4735147853068771
  5.4374055481230839  7.6778515678719970  7.6441778399380933
  7.6581534476410047  5.4555852045593412  7.6747556407906661
  7.6630004277787558  7.6403295472940735  5.4505665215492751
  0.0351408046409916 -0.0151826605725628  0.0213538412485116
 -0.0004308156584151  2.1606763703992526  2.1747655976219296
  2.1919235666370089 -0.0374571189832763  2.2180634927515914
  2.1710960845743683  2.2083020380566802  0.0219508180047675
 -0.0130159512234339 -0.0242107457613113  4.3767115338878568
  0.0051244783851082  2.1738074934034826  6.5454460167471984
  2.1556426849091639 -0.0217957028239313  6.5417503348635755
  2.1907653684437980  2.2024345953448972  4.3753230795485338
  0.0005620718541585  4.3472628513608091 -0.0149133496207190
 -0.0231240129983460  6.5379887652414830  2.1873597283462081
  2.1550219994724604  4.3515143082352630  2.1768362910397019
  2.1943061763949681  6.5747882584087733  0.0129950736532193
  0.0174946899835800  4.3414282631979892  4.3647036258530463
  0.0293377868546046  6.5196931913384564  6.5631745286150691
  2.1753487670939502  4.3662680653178398  6.5532881097795377
  2.1729204951730590  6.5383558493492435  4.3944149966229693
  4.3879053501127512  0.0379548705531467 -0.0136319208973094
  4.3385309708429771  2.2278499955096058  2.2035932621078596
  6.5156575403563037  0.0162937980405859  2.1928965931992019
  6.5802444447948183  2.1417322081243042 -0.0195166425316422
  4.3292578518702616 -0.0312228808010809  4.3690175033563374
  4.3355408322548552  2.1884044493014496  6.5342742327062995
  6.5658757240147878  0.0201782543525727  6.6173896108994796
  6.5331523803689437  2.2161791850143264  4.3639176922983491
  4.3432661571635460  4.3447826754561039 -0.0115166244765463
  4.4026593462398074  6.5915434370475001  2.1487976681349110
  6.5482710899816858  4.3810670398556937  2.2139365086742546
  6.5814603191509597  6.5752015192395774  0.0025656548490462
  4.4147917519179352  4.3870038180767263  4.3934790680385234
  4.3494059145090445  6.5488662541555760  6.5128361850223202
  6.5720658118737578  4.3805033437193366  6.5136331324356718
  6.5575704883638961  6.5136049307314288  4.3527190811922098
