 C Si                                   
   1.00000000000000     
     8.7433155800000009    0.0000000000000000    0.0000000000000000
     0.0000000000000000    8.7433155800000009    0.0000000000000000
     0.0000000000000000    0.0000000000000000    8.7433155800000009
   C    Si
    32    32
Direct
  0.1246420222157312  0.1245210415473110  0.1243084036440294
  0.1271406010637648  0.3778524810813053  0.3749182242143334
  0.3741552000329875  0.1222362534408816  0.3734393768306958
  0.3763918433589239  0.3768944310948399  0.1224921734221311
  0.1237326753743844  0.1272362722914977  0.6233829194583578
  0.1270903114392610  0.3705901960849687  0.8760331999938558
  0.3747340883662460  0.1255421833592152  0.8740770075821231
  0.3770887473829703  0.3742871020666243  0.6254795615422566
  0.1266815941106287  0.6254578350493247  0.1277769545877305
  0.1256339744747521  0.8734277887362438  0.3757643257401000
  0.3744825630270228  0.6229113881489141  0.3744392178839320
  0.3776871604203720  0.8742755794741157  0.1247960024767494
  0.1240471077070140  0.6236265874200200  0.6227605862055512
  0.1228028164589716  0.8720157848101309  0.8742705326410203
  0.3755765297285194  0.6232905202872274  0.8737807324694487
  0.3769973370779169  0.8753706323841968  0.6254842435961976
  0.6265813327951264  0.1262577207323119  0.1279165197148444
  0.6244604160921696  0.3782005534607364  0.3725698840149363
  0.8751344641584708  0.1244477631695418  0.3778025062300117
  0.8728626176148850  0.3738316888052040  0.1230574230458785
  0.6250074027381842  0.1272705755820027  0.6228624796420732
  0.6241574016664089  0.3763950921777877  0.8731335043756019
  0.8761764689361016  0.1209262832873392  0.8736694713261102
  0.8766200381429812  0.3752667548945254  0.6228704141650994
  0.6265280478732080  0.6252734738683685  0.1246505024683344
  0.6261910782032487  0.8749841157589984  0.3743958229126321
  0.8738399234472993  0.6252038019992270  0.3732755457463313
  0.8762270038982578  0.8720346451891530  0.1262453573165345
  0.6247590738897202  0.6253099108025708  0.6261523068609236
  0.6234515877814530  0.8750657108197117  0.8765013188475521
  0.8757641256845758  0.6269577529131283  0.8746282937248537
  0.8753731244993261  0.8753128493728184  0.6251291710637403
  0.0006877955721549  0.0019826257642563  0.9988949220957792
  0.0008468761333091  0.2497291174700464  0.2530769373465134
  0.2494222655878531  0.9966243213082464  0.2508173985410522
  0.2517321106748085  0.2490548463559463  0.9984861971103385
  0.9997008113771884  0.0018401002762261  0.5023792412331005
  0.0008789482605778  0.2484654919462059  0.7501530288849168
  0.2528747611919187  0.0009550192044827  0.7505433439985794
  0.2490061396711809  0.2514353108145286  0.4998746158746101
  0.9990216047005234  0.5002185805262940  0.9998458955956053
  0.9997890333792157  0.7519570841059817  0.2500726362080812
  0.2469595177244273  0.5017414890185847  0.2506869216487786
  0.2542864838350027  0.7498471862797871  0.0011482840366384
  0.0021953891147390  0.5003757695177882  0.4973037967775369
  0.0024710240913279  0.7511134912896296  0.7479921911668157
  0.2496710336143124  0.4977901886852436  0.7503023364529753
  0.2512048325440048  0.7516194257741518  0.5027083488910762
  0.4992729983738755  0.0005096526017709  0.0011881315618822
  0.5026953658434934  0.2481902391737592  0.2500055915120072
  0.7520948435045014  0.0003122022579305  0.2502541164627061
  0.7513443541826703  0.2499974292371547  0.0009494815638860
  0.5018002379932511  0.9982542027548291  0.5001882311450885
  0.4993599116408305  0.2514493885710962  0.7502938438872278
  0.7497614721549510  0.0002021396056762  0.7479442128566660
  0.7508089373363731  0.2477417810772309  0.4998790318476409
  0.4984770746641658  0.4983186616159117  0.0007962068597323
  0.4999841804092569  0.7518039114484054  0.2517946382451086
  0.7499330251121989  0.5024563423112767  0.2507580927844728
  0.7516358756962376  0.7497927406029561  0.0009801012785928
  0.5007271149805916  0.4993842490676599  0.4996551001606520
  0.4994588922134611  0.7507269706580786  0.7515289306525403
  0.7495262263261395  0.4980886705618772  0.7477672543983331
  0.7523113163191582  0.7499362918853834  0.5018643946080843
 
  0.00000000E+00  0.00000000E+00  0.00000000E+00
  0.00000000E+00  0.00000000E+00  0.00000000E+00
  0.00000000E+00  0.00000000E+00  0.00000000E+00
  0.00000000E+00  0.00000000E+00  0.00000000E+00
  0.00000000E+00  0.00000000E+00  0.00000000E+00
  0.00000000E+00  0.00000000E+00  0.00000000E+00
  0.00000000E+00  0.00000000E+00  0.00000000E+00
  0.00000000E+00  0.00000000E+00  0.00000000E+00
  0.00000000E+00  0.00000000E+00  0.00000000E+00
  0.00000000E+00  0.00000000E+00  0.00000000E+00
  0.00000000E+00  0.00000000E+00  0.00000000E+00
  0.00000000E+00  0.00000000E+00  0.00000000E+00
  0.00000000E+00  0.00000000E+00  0.00000000E+00
  0.00000000E+00  0.00000000E+00  0.00000000E+00
  0.00000000E+00  0.00000000E+00  0.00000000E+00
  0.00000000E+00  0.00000000E+00  0.00000000E+00
  0.00000000E+00  0.00000000E+00  0.00000000E+00
  0.00000000E+00  0.00000000E+00  0.00000000E+00
  0.00000000E+00  0.00000000E+00  0.00000000E+00
  0.00000000E+00  0.00000000E+00  0.00000000E+00
  0.00000000E+00  0.00000000E+00  0.00000000E+00
  0.00000000E+00  0.00000000E+00  0.00000000E+00
  0.00000000E+00  0.00000000E+00  0.00000000E+00
  0.00000000E+00  0.00000000E+00  0.00000000E+00
  0.00000000E+00  0.00000000E+00  0.00000000E+00
  0.00000000E+00  0.00000000E+00  0.00000000E+00
  0.00000000E+00  0.00000000E+00  0.00000000E+00
  0.00000000E+00  0.00000000E+00  0.00000000E+00
  0.00000000E+00  0.00000000E+00  0.00000000E+00
  0.00000000E+00  0.00000000E+00  0.00000000E+00
  0.00000000E+00  0.00000000E+00  0.00000000E+00
  0.00000000E+00  0.00000000E+00  0.00000000E+00
  0.00000000E+00  0.00000000E+00  0.00000000E+00
  0.00000000E+00  0.00000000E+00  0.00000000E+00
  0.00000000E+00  0.00000000E+00  0.00000000E+00
  0.00000000E+00  0.00000000E+00  0.00000000E+00
  0.00000000E+00  0.00000000E+00  0.00000000E+00
  0.00000000E+00  0.00000000E+00  0.00000000E+00
  0.00000000E+00  0.00000000E+00  0.00000000E+00
  0.00000000E+00  0.00000000E+00  0.00000000E+00
  0.00000000E+00  0.00000000E+00  0.00000000E+00
  0.00000000E+00  0.00000000E+00  0.00000000E+00
  0.00000000E+00  0.00000000E+00  0.00000000E+00
  0.00000000E+00  0.00000000E+00  0.00000000E+00
  0.00000000E+00  0.00000000E+00  0.00000000E+00
  0.00000000E+00  0.00000000E+00  0.00000000E+00
  0.00000000E+00  0.00000000E+00  0.00000000E+00
  0.00000000E+00  0.00000000E+00  0.00000000E+00
  0.00000000E+00  0.00000000E+00  0.00000000E+00
  0.00000000E+00  0.00000000E+00  0.00000000E+00
  0.00000000E+00  0.00000000E+00  0.00000000E+00
  0.00000000E+00  0.00000000E+00  0.00000000E+00
  0.00000000E+00  0.00000000E+00  0.00000000E+00
  0.00000000E+00  0.00000000E+00  0.00000000E+00
  0.00000000E+00  0.00000000E+00  0.00000000E+00
  0.00000000E+00  0.00000000E+00  0.00000000E+00
  0.00000000E+00  0.00000000E+00  0.00000000E+00
  0.00000000E+00  0.00000000E+00  0.00000000E+00
  0.00000000E+00  0.00000000E+00  0.00000000E+00
  0.00000000E+00  0.00000000E+00  0.00000000E+00
  0.00000000E+00  0.00000000E+00  0.00000000E+00
  0.00000000E+00  0.00000000E+00  0.00000000E+00
  0.00000000E+00  0.00000000E+00  0.00000000E+00
  0.00000000E+00  0.00000000E+00  0.00000000E+00
