 C Si 
 1.0000000000000000
     8.7433155800000009    0.0000000000000000    0.0000000000000000
     0.0000000000000000    8.7433155800000009    0.0000000000000000
     0.0000000000000000    0.0000000000000000    8.7433155800000009
 C   Si 
  32  32
Cartesian
  1.0897845347615356  1.0887267625984505  1.0868676023057429
  1.1116303981313600  3.3036834847798184  3.2780283509991368
  3.2713569897864305  1.0687501391504939  3.2650983216292842
  3.2909126682250198  3.2953069514067472  1.0709877283097833
  1.0818338283559350  1.1124668818673955  5.4504335920061271
  1.1111907000739332  3.2401870352249582  7.6594347261035205
  3.2764183931697239  1.0976549277118131  7.6423311185125309
  3.2970059200361854  3.2725102508921786  5.4687651954039760
  1.1076171554866776  5.4685752338198013  1.1171942378118840
  1.0984574864024386  7.6366547932625597  3.2854260836516058
  3.2742192277525035  5.4463108449618289  3.2738402474876045
  3.3022380340693740  7.6440672952295490  1.0911308327766507
  1.0845830094686868  5.4525640578916965  5.4449923359809276
  1.0737037784136212  7.6243091973363484  7.6440231691751590
  3.2837841238577141  5.4496257168936522  7.6397406917039206
  3.2962066908918448  7.6536416883992144  5.4688061320791519
  5.4783983291647989  1.1039110967740924  1.1184144997621566
  5.4598544851119666  3.3067267914378813  3.2574960715465648
  7.6515767950717128  1.0880860666164041  3.3032465388839052
  7.6317133237917840  3.2685284290282244  1.0759298841516578
  5.4646369619761153  1.1127668063617198  5.4458832224519664
  5.4572051343622485  3.2909410736736033  7.6340817722272112
  7.6606873716783737  1.0572966566977005  7.6387679004159228
  7.6645656372357474  3.2810756647253720  5.4459525964907627
  5.4779324422768045  5.4669633058340175  1.0898586802862147
  5.4749862101114521  7.6502622515681571  3.2734608315589253
  7.6402582171027760  5.4663541426950513  3.2636658947568740
  7.6611292148003880  7.6244740995820859  1.1038029995283245
  5.4624657444863880  5.4672818854485534  5.4746472200300333
  5.4510339808252866  7.6509756629337646  7.6635276369703460
  7.6570821245030203  5.4816894890471497  7.6471511872333062
  7.6536634777482542  7.6531364732955316  5.4657016208741052
  0.0060136137418594  0.0173347227339267 -0.0096620448571010
  0.0074045052906858  2.1834604835555185  2.2127315292404686
  2.1807775807131566 -0.0295146240986623  2.1929756683990473
  2.2009732852493538  2.1775651184184297 -0.0132356563902511
 -0.0026159005471949  0.0160885774139095  4.3924602469419192
  0.0076849220207167  2.1724122068256033  6.5588246648336854
  2.2109638393180600  0.0083500342897425  6.5622373130481035
  2.1771392605026882  2.1983782704068271  4.3705615170229786
 -0.0085544188653101  4.3735689085210145 -0.0013473834399211
 -0.0018445477423930  6.5745980889552147  2.1864639762897702
  2.1592449989492661  4.3868841780685708  2.1918348677540287
  2.2233069758979709  6.5561505864192258  0.0100398097078277
  0.0191949798510297  4.3749432614793884  4.3480840343581928
  0.0216049434362332  6.5672222907408049  6.5399317787471452
  2.1829526380747399  4.3523367123028516  6.5601301080196963
  2.1963631261532668  6.5716458356017977  4.3953377390554449
  4.3653013853556253  0.0044560535334381  0.0103882091960657
  4.3952242241732256  2.1700055849718289  2.1858777833540270
  6.5758025628505408  0.0027296828658841  2.1880507154275382
  6.5692407978703873  2.1858064180091641  0.0083016169504430
  4.3873978388941115 -0.0152640562531995  4.3733035543034982
  4.3660612954767251  2.1985013566751106  6.5600558548372945
  6.5554011607760954  0.0017673703636360  6.5395122892405029
  6.5645594794163600  2.1660845743095312  4.3706001272688022
  4.3583423731840325  4.3569573179111583  0.0069614878415961
  4.3715194743258090  6.5732588520717705  2.2015199835289478
  6.5569011024200110  4.3931343660000088  2.1924571394535692
  6.5717896624618399  6.5556745506847278  0.0085693347791237
  4.3780151857382412  4.3662740852798709  4.3686422218610854
  4.3669267138595167  6.5638428188809845  6.5708546081950940
  6.5533443322559570  4.3549464335451500  6.5379650855947986
  6.5776952529836166  6.5569296648488740  4.3879587804241549
