 C Si                                   
   1.00000000000000     
     8.7433155800000009    0.0000000000000000    0.0000000000000000
     0.0000000000000000    8.7433155800000009    0.0000000000000000
     0.0000000000000000    0.0000000000000000    8.7433155800000009
   C    Si
    32    32
Direct
  0.1262552738826841  0.1253641625370889  0.1239486318908760
  0.1247062247353625  0.3750177449391785  0.3751271002367318
  0.3751214496170476  0.1235869463593176  0.3748713848608531
  0.3740649012099340  0.3757492126949487  0.1252301350502307
  0.1246355094980345  0.1258889309734457  0.6240041885893035
  0.1241956088400400  0.3758072827137724  0.8738167074122742
  0.3750341661181267  0.1250288491090004  0.8756078728663752
  0.3756365392334899  0.3761240159384727  0.6252793448696963
  0.1251374862370014  0.6259654518817044  0.1253254793943981
  0.1252476478215243  0.8760088251129687  0.3750391482683781
  0.3753377027348250  0.6244262978435344  0.3751262252439815
  0.3749361495038883  0.8756217066466618  0.1251971691577296
  0.1261150029487013  0.6256025874418256  0.6242470971094249
  0.1242665351217056  0.8743645993802502  0.8756647539364053
  0.3751454067271354  0.6246026004635752  0.8747159534226583
  0.3754262059020874  0.8746044775053292  0.6243899434029245
  0.6250393097579234  0.1249941567152533  0.1264319144154769
  0.6246989017806115  0.3746427266080090  0.3750881143680260
  0.8758397512400364  0.1249730520881300  0.3746330622835714
  0.8752195382536883  0.3747742323637908  0.1249349325068252
  0.6248166165679550  0.1245215632713013  0.6246614286433783
  0.6244487243062693  0.3753581165055238  0.8755238890095995
  0.8742651235136094  0.1254986424605562  0.8740394214226299
  0.8749927776288970  0.3750607523533773  0.6259768475816401
  0.6244198322996155  0.6254956344189893  0.1244909850871636
  0.6240533281949610  0.8743624038038433  0.3753995098222447
  0.8761882066434765  0.6227961673289713  0.3752869393255338
  0.8754472062406293  0.8750108621781720  0.1253005273077079
  0.6248915069790897  0.6246443735915648  0.6254486978886646
  0.6240426039883644  0.8755211567163954  0.8757542918535890
  0.8755917101612027  0.6242170723539004  0.8759897808461830
  0.8747665265896245  0.8730309678995098  0.6243360077077043
  0.0003676892736024  0.0003453541923477  0.0001136616683439
  0.0016792754489643  0.2500028461219941  0.2493095225799919
  0.2491970834216843  0.9998616566405474  0.2512785909811299
  0.2488337636315237  0.2492542566619065  0.9996363239829478
  0.0002240908757827  0.0013056619864500  0.5002933171002439
  0.9988191974054530  0.2496118464769665  0.7502184894904076
  0.2498229318405194  0.0003157850663555  0.7508980444623035
  0.2488707607613918  0.2491208923144157  0.5004193062345053
  0.9997276401408683  0.4996944008980932  0.0001204056922788
  0.9997171283220680  0.7506434955408210  0.2507762230327870
  0.2503442895223387  0.5013734659432814  0.2498692705858332
  0.2503088066470838  0.7515008954795022  0.0004725289571681
  0.0002732815593518  0.4998249823606002  0.4992707912911740
  0.0003655661893589  0.7499322613278281  0.7496447097392220
  0.2498844391173236  0.4998384012692441  0.7486261625502237
  0.2501793876083838  0.7487923479610572  0.5015657172014514
  0.4999661249567637  0.0010133396163994  0.9992423817407641
  0.4987879719296373  0.2499734042503903  0.2499242651898399
  0.7487036655619974  0.0011872112109472  0.2492922009713965
  0.7503303619586035  0.2499131261844454  0.0003275939735303
  0.5010882135334498  0.0011344844780936  0.5008838072500126
  0.4989943234486702  0.2495517927563853  0.7484316027329356
  0.7503848397660491  0.9998763556422858  0.7497692620715242
  0.7503963089916965  0.2495655559880419  0.4995574701248984
  0.5005605659534353  0.5001814340643946  0.9990461994619579
  0.4998747771608336  0.7503414139846072  0.2509050259591064
  0.7503153151797761  0.5005582858695448  0.2498857976362743
  0.7499666453944158  0.7503451819428548  0.9997155061375764
  0.5006979688147410  0.5001632991922875  0.4985452861262374
  0.4987009108150033  0.7500606081587335  0.7495922414677096
  0.7502568082158376  0.5009997353943376  0.7498188894274236
  0.7500071405869448  0.7495464186992677  0.4992612484256256
 
  0.00000000E+00  0.00000000E+00  0.00000000E+00
  0.00000000E+00  0.00000000E+00  0.00000000E+00
  0.00000000E+00  0.00000000E+00  0.00000000E+00
  0.00000000E+00  0.00000000E+00  0.00000000E+00
  0.00000000E+00  0.00000000E+00  0.00000000E+00
  0.00000000E+00  0.00000000E+00  0.00000000E+00
  0.00000000E+00  0.00000000E+00  0.00000000E+00
  0.00000000E+00  0.00000000E+00  0.00000000E+00
  0.00000000E+00  0.00000000E+00  0.00000000E+00
  0.00000000E+00  0.00000000E+00  0.00000000E+00
  0.00000000E+00  0.00000000E+00  0.00000000E+00
  0.00000000E+00  0.00000000E+00  0.00000000E+00
  0.00000000E+00  0.00000000E+00  0.00000000E+00
  0.00000000E+00  0.00000000E+00  0.00000000E+00
  0.00000000E+00  0.00000000E+00  0.00000000E+00
  0.00000000E+00  0.00000000E+00  0.00000000E+00
  0.00000000E+00  0.00000000E+00  0.00000000E+00
  0.00000000E+00  0.00000000E+00  0.00000000E+00
  0.00000000E+00  0.00000000E+00  0.00000000E+00
  0.00000000E+00  0.00000000E+00  0.00000000E+00
  0.00000000E+00  0.00000000E+00  0.00000000E+00
  0.00000000E+00  0.00000000E+00  0.00000000E+00
  0.00000000E+00  0.00000000E+00  0.00000000E+00
  0.00000000E+00  0.00000000E+00  0.00000000E+00
  0.00000000E+00  0.00000000E+00  0.00000000E+00
  0.00000000E+00  0.00000000E+00  0.00000000E+00
  0.00000000E+00  0.00000000E+00  0.00000000E+00
  0.00000000E+00  0.00000000E+00  0.00000000E+00
  0.00000000E+00  0.00000000E+00  0.00000000E+00
  0.00000000E+00  0.00000000E+00  0.00000000E+00
  0.00000000E+00  0.00000000E+00  0.00000000E+00
  0.00000000E+00  0.00000000E+00  0.00000000E+00
  0.00000000E+00  0.00000000E+00  0.00000000E+00
  0.00000000E+00  0.00000000E+00  0.00000000E+00
  0.00000000E+00  0.00000000E+00  0.00000000E+00
  0.00000000E+00  0.00000000E+00  0.00000000E+00
  0.00000000E+00  0.00000000E+00  0.00000000E+00
  0.00000000E+00  0.00000000E+00  0.00000000E+00
  0.00000000E+00  0.00000000E+00  0.00000000E+00
  0.00000000E+00  0.00000000E+00  0.00000000E+00
  0.00000000E+00  0.00000000E+00  0.00000000E+00
  0.00000000E+00  0.00000000E+00  0.00000000E+00
  0.00000000E+00  0.00000000E+00  0.00000000E+00
  0.00000000E+00  0.00000000E+00  0.00000000E+00
  0.00000000E+00  0.00000000E+00  0.00000000E+00
  0.00000000E+00  0.00000000E+00  0.00000000E+00
  0.00000000E+00  0.00000000E+00  0.00000000E+00
  0.00000000E+00  0.00000000E+00  0.00000000E+00
  0.00000000E+00  0.00000000E+00  0.00000000E+00
  0.00000000E+00  0.00000000E+00  0.00000000E+00
  0.00000000E+00  0.00000000E+00  0.00000000E+00
  0.00000000E+00  0.00000000E+00  0.00000000E+00
  0.00000000E+00  0.00000000E+00  0.00000000E+00
  0.00000000E+00  0.00000000E+00  0.00000000E+00
  0.00000000E+00  0.00000000E+00  0.00000000E+00
  0.00000000E+00  0.00000000E+00  0.00000000E+00
  0.00000000E+00  0.00000000E+00  0.00000000E+00
  0.00000000E+00  0.00000000E+00  0.00000000E+00
  0.00000000E+00  0.00000000E+00  0.00000000E+00
  0.00000000E+00  0.00000000E+00  0.00000000E+00
  0.00000000E+00  0.00000000E+00  0.00000000E+00
  0.00000000E+00  0.00000000E+00  0.00000000E+00
  0.00000000E+00  0.00000000E+00  0.00000000E+00
  0.00000000E+00  0.00000000E+00  0.00000000E+00
