 C Si 
 1.0000000000000000
     8.7433155800000009    0.0000000000000000    0.0000000000000000
     0.0000000000000000    8.7433155800000009    0.0000000000000000
     0.0000000000000000    0.0000000000000000    8.7433155800000009
 C   Si 
  32  32
Cartesian
  1.1038897031956627  1.0960984354841874  1.0837220043311646
  1.0903458776516584  3.2788984921032074  3.2798546199800627
  3.2798052148289467  1.0805596735880765  3.2776188197500788
  3.2705674786799519  3.2852939455284909  1.0949265908702006
  1.0897275920154201  1.1006866515296478  5.4558655440781259
  1.0858814017387224  3.2858016700287789  7.6400552319820356
  3.2790420676529046  1.0931666843641836  7.6557159568032151
  3.2843088058974792  3.2885709685670070  5.4670146378514213
  1.0941165330580076  5.4730134879790278  1.0957602165600149
  1.0950797105562633  7.6592216088277016  3.2790856281648173
  3.2816959840828019  5.4595561784971123  3.2798469696422994
  3.2781850774625436  7.6558369099099384  1.0946383596686833
  1.1026632701531081  5.4698408496684223  5.4579893699266320
  1.0865015326022129  7.6448456243617882  7.6562132859490433
  3.2800146794028247  5.4610976479417168  7.6479176236348785
  3.2824697952039910  7.6469429545100995  5.4592383201500905
  5.4649159351188956  1.0928633578174123  1.1054341271180632
  5.4619396407473246  3.2756195884854962  3.2795137542267758
  7.6577433426003516  1.0926788334023063  3.2755350902470819
  7.6523206247338562  3.2767693848088939  1.0923455418731987
  5.4629688582814788  1.0887313241959473  5.4616120012827096
  5.4597522601381208  3.2818744681221803  7.6549816594398026
  7.6439758754671656  1.0972742358942003  7.6420024908586628
  7.6503379850301867  3.2792745194978270  5.4731131241798332
  5.4594996482061902  5.4689057256375282  1.0884639694821758
  5.4562951871578376  7.6448264277444187  3.2822363829531942
  7.6607899981581502  5.4453034329716576  3.2812521435754851
  7.6543111977911558  7.6504961039516273  1.0955420525916710
  5.4636236487799703  5.4614628835824393  5.4684953447406750
  5.4562014220352202  7.6549577701380853  7.6569961442153502
  7.6555746411712962  5.4577268540138286  7.6590550987932007
  7.6483598007935623  7.6331852634582633  5.4587667433457456
  0.0032148233544559  0.0030195406905695  0.0009937798356994
  0.0146824351960377  2.1858537795427724  2.1797918330160342
  2.1788087419713524 -0.0012095796500825  2.1970080194457768
  2.1756321223895405  2.1793086256533880 -0.0031797341859498
  0.0019592972455862  0.0114158147883535  4.3742223539724208
 -0.0103241297218025  2.1824351462546172  6.5593970075655355
  2.1842807322025140  0.0027610084905945  6.5653385711387831
  2.1759555999715059  2.1781425790761295  4.3753239167329383
 -0.0023813281997044  4.3689858406110824  0.0010527449651994
 -0.0024732363487876  6.5631129695877499  2.1926156579361318
  2.1888391269446719  4.3836664361805022  2.1846858864763812
  2.1885288889686527  6.5706094878299073  0.0041314697932307
  0.0023893869156373  4.3701275555466461  4.3652820881350731
  0.0031962605589400  6.5568944244122243  6.5543802701275355
  2.1848185097340864  4.3702448812996835  6.5454747906209603
  2.1873973374712579  6.5469278021126742  4.3853473496012993
  4.3713616098066801  0.0088599480558777 -0.0066240955296787
  4.3610606460890295  2.1855963599680823  2.1851667216544075
  6.5461524239113240  0.0103801622774277  2.1796403847257126
  6.5603751438597255  2.1850693298149539  0.0028642574926815
  4.3811723843413715  0.0099191558125845  4.3793851956987302
  4.3628648425402874  2.1819100776238294  6.5437736927392471
  6.5608514605223185 -0.0010810616391563  6.5554692704750863
  6.5609517395815731  2.1820304139015807  4.3677886116484306
  4.3765589950342783  4.3732441252819472 -0.0083393791044461
  4.3705629271993232  6.5604717752108721  2.1937418225685823
  6.5602435851239607  4.3765390595413143  2.1848303876939483
  6.5571950551573153  6.5605047196589084 -0.0024874196197574
  4.3777603516122738  4.3730855663721222  4.3589387675230782
  4.3602994432890005  6.5580166012585011  6.5539215234717627
  6.5597320402745876  4.3803987920492204  6.5559031781091068
  6.5575491174050882  6.5535208805464977  4.3651986518500534
