 C Si                                   
   1.00000000000000     
     8.7433155800000009    0.0000000000000000    0.0000000000000000
     0.0000000000000000    8.7433155800000009    0.0000000000000000
     0.0000000000000000    0.0000000000000000    8.7433155800000009
   C    Si
    32    32
Direct
  0.1209508302949516  0.1255789068494551  0.1245434492554622
  0.1229048794247660  0.3791418476235862  0.3726425336739752
  0.3769741716825479  0.1258790192059180  0.3730578503924988
  0.3746060202826840  0.3745644725655950  0.1235307540456034
  0.1216435917316758  0.1239865600065215  0.6251178996995890
  0.1236889853837013  0.3752024159944014  0.8740785154826440
  0.3773166299560486  0.1253902902357069  0.8743352068737167
  0.3755041534791559  0.3753620951902548  0.6267229710007882
  0.1289479765446373  0.6244988244134149  0.1240060190520111
  0.1280857756410967  0.8733211196241157  0.3738080555571131
  0.3742291580374300  0.6262126435864346  0.3764338856757306
  0.3753832533384625  0.8743271461568725  0.1215763398353928
  0.1237452792974452  0.6224761552175977  0.6255922532003808
  0.1226968574084069  0.8719033502791831  0.8742160021852285
  0.3737530830184213  0.6239446470878249  0.8759977048208043
  0.3758768513376793  0.8749135085940125  0.6234090045003882
  0.6254883276345637  0.1264624414438558  0.1245112500307357
  0.6199385356825928  0.3738281222881241  0.3770329795605960
  0.8777994915719347  0.1244978870933053  0.3726707426180980
  0.8764148027001539  0.3749427063216970  0.1229767202061041
  0.6267663430999377  0.1235334485541486  0.6250282262998397
  0.6243800207056935  0.3741242036671224  0.8746287352970512
  0.8755891666193563  0.1264148790364530  0.8767230512437791
  0.8753718783425128  0.3764772763909079  0.6275080751147684
  0.6275986997511183  0.6246425722872289  0.1258208155478542
  0.6263412235226227  0.8765553933886494  0.3757737851541236
  0.8770043920399289  0.6255701621821359  0.3765111278848394
  0.8779781626486596  0.8758658278368259  0.1237451192561281
  0.6234790115932682  0.6252935766292822  0.6251177243496926
  0.6248054790801518  0.8768508762526324  0.8742194210431293
  0.8737322558886191  0.6223650519793082  0.8744836007178591
  0.8783820182606092  0.8781022661028715  0.6270347621182140
  0.9999555295535671  0.9982456939118123  0.0014659919587103
  0.0002493540291439  0.2517569383373726  0.2514734474607181
  0.2512531157019140  0.9976129764559829  0.2514464356028796
  0.2479061574195853  0.2497884188646537  0.0001522458898293
  0.0014320969979451  0.9973522811277107  0.5003312310652532
  0.9977383978405499  0.2509908270538546  0.7493980244486949
  0.2500952552368574  0.0026307786944813  0.7483860044039545
  0.2479359521478983  0.2509229303506331  0.4982526303405308
  0.9982883091760542  0.4996584182976491  0.9990235541985157
  0.9979483265341216  0.7510647283468685  0.2509917808742657
  0.2516682126738132  0.4967461131144475  0.2505846983819779
  0.2529288230994382  0.7507347622032725  0.0043851670523480
  0.9998328690672906  0.5025085566880207  0.4995008120129114
  0.0014990683178553  0.7515080162273620  0.7520044087037547
  0.2528918772639344  0.5010218289477706  0.7481809055182254
  0.2516019953684250  0.7456580820857184  0.4980110908367550
  0.5021832799503798  0.9985904879651741  0.9983230065033837
  0.4983412710031487  0.2482091341871779  0.2484806119748626
  0.7455744053246036  0.0025665164128199  0.2476369343162830
  0.7515534565747828  0.2467055969510454  0.0019616866372729
  0.5033098225660666  0.9997431461176163  0.4960112827180367
  0.5004007842422311  0.2494401133506230  0.7481860311256909
  0.7512833683394149  0.9970810569440829  0.7533250141513861
  0.7522816134817631  0.2537594785023103  0.4989729321497833
  0.5005614131865102  0.5029996790262743  0.9988182358765911
  0.5014779199179529  0.7508103951134686  0.2499948522956217
  0.7508293779360216  0.4991982721068311  0.2535024100361056
  0.7472461247133921  0.7478622360733809  0.0031513630336946
  0.4984516847775353  0.4981554510201747  0.5006286329001739
  0.5002998109386780  0.7493838554610548  0.7493579214363706
  0.7519584205451437  0.4995168902954390  0.7491198134523174
  0.7505408867158181  0.7516245170866043  0.4989223838855210
 
  0.00000000E+00  0.00000000E+00  0.00000000E+00
  0.00000000E+00  0.00000000E+00  0.00000000E+00
  0.00000000E+00  0.00000000E+00  0.00000000E+00
  0.00000000E+00  0.00000000E+00  0.00000000E+00
  0.00000000E+00  0.00000000E+00  0.00000000E+00
  0.00000000E+00  0.00000000E+00  0.00000000E+00
  0.00000000E+00  0.00000000E+00  0.00000000E+00
  0.00000000E+00  0.00000000E+00  0.00000000E+00
  0.00000000E+00  0.00000000E+00  0.00000000E+00
  0.00000000E+00  0.00000000E+00  0.00000000E+00
  0.00000000E+00  0.00000000E+00  0.00000000E+00
  0.00000000E+00  0.00000000E+00  0.00000000E+00
  0.00000000E+00  0.00000000E+00  0.00000000E+00
  0.00000000E+00  0.00000000E+00  0.00000000E+00
  0.00000000E+00  0.00000000E+00  0.00000000E+00
  0.00000000E+00  0.00000000E+00  0.00000000E+00
  0.00000000E+00  0.00000000E+00  0.00000000E+00
  0.00000000E+00  0.00000000E+00  0.00000000E+00
  0.00000000E+00  0.00000000E+00  0.00000000E+00
  0.00000000E+00  0.00000000E+00  0.00000000E+00
  0.00000000E+00  0.00000000E+00  0.00000000E+00
  0.00000000E+00  0.00000000E+00  0.00000000E+00
  0.00000000E+00  0.00000000E+00  0.00000000E+00
  0.00000000E+00  0.00000000E+00  0.00000000E+00
  0.00000000E+00  0.00000000E+00  0.00000000E+00
  0.00000000E+00  0.00000000E+00  0.00000000E+00
  0.00000000E+00  0.00000000E+00  0.00000000E+00
  0.00000000E+00  0.00000000E+00  0.00000000E+00
  0.00000000E+00  0.00000000E+00  0.00000000E+00
  0.00000000E+00  0.00000000E+00  0.00000000E+00
  0.00000000E+00  0.00000000E+00  0.00000000E+00
  0.00000000E+00  0.00000000E+00  0.00000000E+00
  0.00000000E+00  0.00000000E+00  0.00000000E+00
  0.00000000E+00  0.00000000E+00  0.00000000E+00
  0.00000000E+00  0.00000000E+00  0.00000000E+00
  0.00000000E+00  0.00000000E+00  0.00000000E+00
  0.00000000E+00  0.00000000E+00  0.00000000E+00
  0.00000000E+00  0.00000000E+00  0.00000000E+00
  0.00000000E+00  0.00000000E+00  0.00000000E+00
  0.00000000E+00  0.00000000E+00  0.00000000E+00
  0.00000000E+00  0.00000000E+00  0.00000000E+00
  0.00000000E+00  0.00000000E+00  0.00000000E+00
  0.00000000E+00  0.00000000E+00  0.00000000E+00
  0.00000000E+00  0.00000000E+00  0.00000000E+00
  0.00000000E+00  0.00000000E+00  0.00000000E+00
  0.00000000E+00  0.00000000E+00  0.00000000E+00
  0.00000000E+00  0.00000000E+00  0.00000000E+00
  0.00000000E+00  0.00000000E+00  0.00000000E+00
  0.00000000E+00  0.00000000E+00  0.00000000E+00
  0.00000000E+00  0.00000000E+00  0.00000000E+00
  0.00000000E+00  0.00000000E+00  0.00000000E+00
  0.00000000E+00  0.00000000E+00  0.00000000E+00
  0.00000000E+00  0.00000000E+00  0.00000000E+00
  0.00000000E+00  0.00000000E+00  0.00000000E+00
  0.00000000E+00  0.00000000E+00  0.00000000E+00
  0.00000000E+00  0.00000000E+00  0.00000000E+00
  0.00000000E+00  0.00000000E+00  0.00000000E+00
  0.00000000E+00  0.00000000E+00  0.00000000E+00
  0.00000000E+00  0.00000000E+00  0.00000000E+00
  0.00000000E+00  0.00000000E+00  0.00000000E+00
  0.00000000E+00  0.00000000E+00  0.00000000E+00
  0.00000000E+00  0.00000000E+00  0.00000000E+00
  0.00000000E+00  0.00000000E+00  0.00000000E+00
  0.00000000E+00  0.00000000E+00  0.00000000E+00
