 C Si 
 1.0000000000000000
     8.7433155800000009    0.0000000000000000    0.0000000000000000
     0.0000000000000000    8.7433155800000009    0.0000000000000000
     0.0000000000000000    0.0000000000000000    8.7433155800000009
 C   Si 
  32  32
Cartesian
  1.0575112789317904  1.0979760127762082  1.0889226802622212
  1.0745961471325913  3.3149568233572926  3.2581312704423238
  3.2960041485296099  1.1005999898182093  3.2617625155780736
  3.2752986534993811  3.2749353886972226  1.0800683664560846
  1.0635683107946956  1.0840536218156240  5.4656030717802864
  1.0814518329796865  3.2805131294175092  7.6423443025627034
  3.2989983692878302  1.0963268781985547  7.6445886364015045
  3.2831513154690186  3.2819092550183733  5.4796367166950972
  1.1274328523321839  5.4601903011854711  1.0842237583912475
  1.1198943577391554  7.6357221515525593  3.2683217960820383
  3.2720036279589135  5.4751747630622809  3.2912802574685815
  3.2820942473852464  7.6445181590103353  1.0629803062421384
  1.0819440284328068  5.4425054660925465  5.4697504941341863
  1.0727773449959719  7.6233261467501494  7.6435463921914470
  3.2678411538280239  5.4553449539405765  7.6591243806040001
  3.2864099304620948  7.6496449108424986  5.4506616617605035
  5.4688418401154264  1.1057010345608971  1.0886411522790085
  5.4203182576760298  3.2684972458438923  3.2965183243660081
  7.6748779707769987  1.0885243158999904  3.2583779101430128
  7.6627711989908560  3.2782424057898560  1.0752242737553357
  5.4800159326453386  1.0800919253945858  5.4648190289471250
  5.4591515628767953  3.2710859787778319  7.6471550480383952
  7.6555524021822619  1.1052851814232352  7.6654663132848464
  7.6536525822059369  3.2916596361845869  5.4865011297267845
  5.4872934895216723  5.4614471342102009  1.1000910968678410
  5.4762989780216262  7.6640004277480287  3.2855087902935955
  7.6679261646511367  5.4695573453901956  3.2919556104788859
  7.6764401483857787  7.6579713385153196  1.0819426291410359
  5.4512737558663948  5.4671390706167564  5.4656015386408319
  5.4628714797108531  7.6665839276762835  7.6435762843449853
  7.6393168456595131  5.4415340554181988  7.6458860906109880
  7.6799711854498147  7.6775252240505383  5.4823628048297799
 -0.0003888191471666 -0.0153384517529648  0.0128176303327406
  0.0021801809679649  2.2011903613382735  2.1987117111395817
  2.1967852810400648 -0.0208705001422372  2.1984755379421399
  2.1675217685446189  2.1839789743628728  0.0013311338605298
  0.0125212759941918 -0.0231498416675352  4.3745538477334120
 -0.0197739013964731  2.1944920086170461  6.5522234227834657
  2.1866617415965037  0.0230017283469960  6.5433750121590197
  2.1677822732568357  2.1938983663139702  4.3563799856323131
 -0.0149658530491431  4.3686712333799749 -0.0085373737891702
 -0.0179384285792666  6.5667959409436483  2.1945003481699312
  2.2004146048617206  4.3432080300979630  2.1909410974727197
  2.2114365196363783  6.5639109428194953  0.0383408994096837
 -0.0014612784878614  4.3935908927737088  4.3672932318951529
  0.0131068273789714  6.5706717467756066  6.5750118628482062
  2.2111134905372132  4.3805919629591301  6.5415817678760275
  2.1998356460638098  6.5195239264529885  4.3542681295257974
  4.3907468956056288 -0.0123238085342759 -0.0146624833665522
  4.3571549989188361  2.1701707900370928  2.1725444060077272
  6.5187923141238642  0.0224398629385495  2.1651678659909974
  6.5710690460731387  2.1570248894952559  0.0171516453387265
  4.4005966132089007 -0.0022457545515985  4.3367831760443876
  4.3751619731093152  2.1809336293354562  6.5416265826796494
  6.5687075793968956 -0.0255212402979505  6.5865583330335280
  6.5774355517026146  2.2186992019619147  4.3626778116634704
  4.3765664026604112  4.3978849303654197 -0.0103325366720876
  4.3845797102446058  6.5645722252215686  2.1857838869961044
  6.5647381980296959  4.3646480300207235  2.2164515712362034
  6.5334086843011994  6.5387955403540206  0.0275533615107336
  4.3581203813926814  4.3555303161666030  4.3771541258301960
  4.3742791316511971  6.5520995388531098  6.5518727894910249
  6.5746097738645650  4.3674338093932672  6.5497909362443547
  6.5622158282494505  6.5716903505532978  4.3622358522370295
