 C Si                                   
   1.00000000000000     
     8.7433155800000009    0.0000000000000000    0.0000000000000000
     0.0000000000000000    8.7433155800000009    0.0000000000000000
     0.0000000000000000    0.0000000000000000    8.7433155800000009
   C    Si
    32    32
Direct
  0.1278426481663075  0.1277748100950262  0.1242404765089091
  0.1248689994330121  0.3717418231386205  0.3744716473902159
  0.3710034780715645  0.1244343952240072  0.3713684888203730
  0.3765365687587874  0.3773092673718637  0.1228552285203719
  0.1246991354891804  0.1246600235634361  0.6247592813896219
  0.1230986207036722  0.3730185752682758  0.8784251937549428
  0.3764339114228150  0.1221673285082119  0.8770065036179773
  0.3767777850072775  0.3742731630179961  0.6239770557015873
  0.1247555153176094  0.6265552089687247  0.1248041114083449
  0.1240152906180114  0.8768323841871108  0.3770066396431346
  0.3735526905912963  0.6298038882250552  0.3727684793492472
  0.3745671641310366  0.8733305183076396  0.1244444063275694
  0.1222969231697988  0.6265168493826963  0.6240002458083538
  0.1256835115787069  0.8745745256672706  0.8781757708512004
  0.3746411875154152  0.6246587480225543  0.8722426563463586
  0.3735820331252810  0.8737683379441776  0.6204225706120283
  0.6235912361668454  0.1238873216725196  0.1221687307768065
  0.6257376426565386  0.3764389098166987  0.3790455471042549
  0.8740610531151702  0.1258725336819779  0.3743681522774480
  0.8767618413779630  0.3748712061631707  0.1240182290176080
  0.6284653724577751  0.1234474878678498  0.6241416097773396
  0.6242470376309512  0.3768404844487421  0.8710543706896061
  0.8774495800180446  0.1288445891504892  0.8751118622416456
  0.8758290313362238  0.3736362104562758  0.6273865227517916
  0.6276203996014260  0.6270429154266779  0.1245366305911375
  0.6234099580467714  0.8777425899901132  0.3740315899734270
  0.8775948015242463  0.6243736998415841  0.3718491683681222
  0.8752902663739803  0.8729246724900790  0.1246411784156862
  0.6238486225547248  0.6229260992866372  0.6252148630390053
  0.6238540909333992  0.8801277333954758  0.8752502803455968
  0.8739085683693446  0.6263036370230139  0.8730255061995109
  0.8760392137499480  0.8769713484135835  0.6295130053656024
  0.9983062165125318  0.9947714370833225  0.9991482338132869
  0.0009282801743637  0.2488097541251761  0.2530461442315044
  0.2502397776042855  0.9992010008751819  0.2501798312834609
  0.2467700032308144  0.2495071598294558  0.0016181701780624
  0.9996212432413145  0.9997210220079538  0.4998276876088212
  0.9997305369755622  0.2472442869142100  0.7519454478944141
  0.2486604152848599  0.0013941808260256  0.7526095076826067
  0.2507825762958333  0.2479917011212862  0.5002556146352219
  0.9994393104044832  0.4974702090880854  0.9987006282690487
  0.9987975881499125  0.7515631962334695  0.2514373649097763
  0.2490238566326610  0.5018674266417236  0.2505978737679442
  0.2506114225310796  0.7520520726618969  0.0029769684245764
  0.0036893156496305  0.4978909354683267  0.4997192392265859
  0.0017365698920955  0.7462560346945395  0.7531144625347892
  0.2479600023618573  0.5011244660463845  0.7529467142072619
  0.2481574886042068  0.7498488192183430  0.5001934662488026
  0.5003385999656516  0.9995792931001617  0.0007796877718036
  0.5000661018860484  0.2526135791184245  0.2479048004017628
  0.7472952528297938  0.9974461335083333  0.2505007110038235
  0.7530965417609821  0.2525646009795253  0.0013754290118868
  0.4987638933126775  0.9965231659559279  0.5026577105317642
  0.4995513223824588  0.2503158504907361  0.7486149016851513
  0.7495982928409006  0.9991279220102811  0.7496583297250510
  0.7503911618759815  0.2525450436537184  0.4952286093775484
  0.4998917117529800  0.5015229007046358  0.0020218894439239
  0.4998563737114807  0.7515665027251899  0.2516586536772181
  0.7506580279747226  0.4981665074363377  0.2498003001741722
  0.7537069238324818  0.7510645684184780  0.9985559196325653
  0.4984036448407494  0.4984052282762121  0.5001681015972110
  0.4970305134535025  0.7497473338566110  0.7495354797790554
  0.7481553088691442  0.4998594457196788  0.7495065106626200
  0.7515015816453428  0.7528727618574109  0.4989674606156598
 
  0.00000000E+00  0.00000000E+00  0.00000000E+00
  0.00000000E+00  0.00000000E+00  0.00000000E+00
  0.00000000E+00  0.00000000E+00  0.00000000E+00
  0.00000000E+00  0.00000000E+00  0.00000000E+00
  0.00000000E+00  0.00000000E+00  0.00000000E+00
  0.00000000E+00  0.00000000E+00  0.00000000E+00
  0.00000000E+00  0.00000000E+00  0.00000000E+00
  0.00000000E+00  0.00000000E+00  0.00000000E+00
  0.00000000E+00  0.00000000E+00  0.00000000E+00
  0.00000000E+00  0.00000000E+00  0.00000000E+00
  0.00000000E+00  0.00000000E+00  0.00000000E+00
  0.00000000E+00  0.00000000E+00  0.00000000E+00
  0.00000000E+00  0.00000000E+00  0.00000000E+00
  0.00000000E+00  0.00000000E+00  0.00000000E+00
  0.00000000E+00  0.00000000E+00  0.00000000E+00
  0.00000000E+00  0.00000000E+00  0.00000000E+00
  0.00000000E+00  0.00000000E+00  0.00000000E+00
  0.00000000E+00  0.00000000E+00  0.00000000E+00
  0.00000000E+00  0.00000000E+00  0.00000000E+00
  0.00000000E+00  0.00000000E+00  0.00000000E+00
  0.00000000E+00  0.00000000E+00  0.00000000E+00
  0.00000000E+00  0.00000000E+00  0.00000000E+00
  0.00000000E+00  0.00000000E+00  0.00000000E+00
  0.00000000E+00  0.00000000E+00  0.00000000E+00
  0.00000000E+00  0.00000000E+00  0.00000000E+00
  0.00000000E+00  0.00000000E+00  0.00000000E+00
  0.00000000E+00  0.00000000E+00  0.00000000E+00
  0.00000000E+00  0.00000000E+00  0.00000000E+00
  0.00000000E+00  0.00000000E+00  0.00000000E+00
  0.00000000E+00  0.00000000E+00  0.00000000E+00
  0.00000000E+00  0.00000000E+00  0.00000000E+00
  0.00000000E+00  0.00000000E+00  0.00000000E+00
  0.00000000E+00  0.00000000E+00  0.00000000E+00
  0.00000000E+00  0.00000000E+00  0.00000000E+00
  0.00000000E+00  0.00000000E+00  0.00000000E+00
  0.00000000E+00  0.00000000E+00  0.00000000E+00
  0.00000000E+00  0.00000000E+00  0.00000000E+00
  0.00000000E+00  0.00000000E+00  0.00000000E+00
  0.00000000E+00  0.00000000E+00  0.00000000E+00
  0.00000000E+00  0.00000000E+00  0.00000000E+00
  0.00000000E+00  0.00000000E+00  0.00000000E+00
  0.00000000E+00  0.00000000E+00  0.00000000E+00
  0.00000000E+00  0.00000000E+00  0.00000000E+00
  0.00000000E+00  0.00000000E+00  0.00000000E+00
  0.00000000E+00  0.00000000E+00  0.00000000E+00
  0.00000000E+00  0.00000000E+00  0.00000000E+00
  0.00000000E+00  0.00000000E+00  0.00000000E+00
  0.00000000E+00  0.00000000E+00  0.00000000E+00
  0.00000000E+00  0.00000000E+00  0.00000000E+00
  0.00000000E+00  0.00000000E+00  0.00000000E+00
  0.00000000E+00  0.00000000E+00  0.00000000E+00
  0.00000000E+00  0.00000000E+00  0.00000000E+00
  0.00000000E+00  0.00000000E+00  0.00000000E+00
  0.00000000E+00  0.00000000E+00  0.00000000E+00
  0.00000000E+00  0.00000000E+00  0.00000000E+00
  0.00000000E+00  0.00000000E+00  0.00000000E+00
  0.00000000E+00  0.00000000E+00  0.00000000E+00
  0.00000000E+00  0.00000000E+00  0.00000000E+00
  0.00000000E+00  0.00000000E+00  0.00000000E+00
  0.00000000E+00  0.00000000E+00  0.00000000E+00
  0.00000000E+00  0.00000000E+00  0.00000000E+00
  0.00000000E+00  0.00000000E+00  0.00000000E+00
  0.00000000E+00  0.00000000E+00  0.00000000E+00
  0.00000000E+00  0.00000000E+00  0.00000000E+00
