 C Si 
 1.0000000000000000
     8.7433155800000009    0.0000000000000000    0.0000000000000000
     0.0000000000000000    8.7433155800000009    0.0000000000000000
     0.0000000000000000    0.0000000000000000    8.7433155800000009
 C   Si 
  32  32
Cartesian
  1.1177686175009662  1.1171754878353917  1.0862736939269906
  1.0917690682016512  3.2502560739855020  3.2741237888951495
  3.2438004900572723  1.0879691864499341  3.2469918942242377
  3.2921780480684233  3.2989339958908253  1.0741620336066444
  1.0902838941350921  1.0899419262253747  5.4624675587235139
  1.0762900882749176  3.2614191207724921  7.6803486824221388
  3.2912804825834341  1.0681475067128556  7.6679446268443563
  3.2942870778520303  3.2723883773911480  5.4556283126782272
  1.0907768407673566  5.4781699203064207  1.0912017317246332
  1.0843048226186967  7.6664222457117388  3.2962880261552905
  3.2660890595977770  5.5065741482627120  3.2592324532271872
  3.2749589219033020  7.6358043272086826  1.0880567166876618
  1.0692805937365915  5.4778345303402283  5.4558310710999907
  1.0988906049352087  7.6466810761377557  7.6781678992618074
  3.2756061317132521  5.4615885637689043  7.6262928067736935
  3.2663456106323348  7.6396323224580405  5.4245503278157887
  5.4522549707290340  1.0831859497438316  1.0681597671897056
  5.4710216800313960  3.2913241851185617  3.3141148375262728
  7.6421916235730976  1.1005432848356842  3.2732188984632233
  7.6658054676694061  3.2776172573398363  1.0843305139736530
  5.4948710825005582  1.0793403439868019  5.4570670608924967
  5.4579888498875411  3.2948352788554525  7.6159032502774995
  7.6718185836362389  1.1265289037181576  7.6513791793802142
  7.6576496150982951  3.2668193001345287  5.4854383590577482
  5.4874832181609738  5.4824340917787051  1.0888630625281726
  5.4506699989174958  7.6743804622900935  3.2702762280268440
  7.6730883010939399  5.4590962975671404  3.2511946272030725
  7.6529390230099965  7.6322558891488956  1.0897771571514421
  5.4545053811442816  5.4464394690814961  5.4664508528564806
  5.4545531929047302  7.6952345237867750  7.6525894125450549
  7.6408584013191625  5.4759703473939974  7.6331375100915739
  7.6594873062708615  7.6676372537981070  5.5040308676257057
 -0.0148092835551353 -0.0457149756103869 -0.0074472605708082
  0.0081162465110890  2.1754221996986165  2.2124622953182604
  2.1879253462632735 -0.0069859014964189  2.1874012166624430
  2.1575880139246197  2.1815198378584197  0.0141481725289610
 -0.0033115898692541 -0.0024391926243133  4.3701512083855745
 -0.0023560002598282  2.1617348258430034  6.5744963498852806
  2.1741164830893762  0.0121897629374993  6.5803024341774465
  2.1926712065198695  2.1682697041244738  4.3738927094226376
 -0.0049022860760145  4.3495390297057295 -0.0113608170994582
 -0.0105130662624235  6.5711542029827017  2.1983962300098083
  2.1772941654880524  4.3879852904511019  2.1910562940301315
  2.1911747551419301  6.5754286038760847  0.0260285744077788
  0.0322568509989547  4.3532175732209817  4.3692030099555517
  0.0151833785933095  6.5247520148137905  6.5847174138037365
  2.1679925518672434  4.3814893515025330  6.5832507372381581
  2.1697192364068343  6.5561648637163312  4.3733493264673431
  4.3746182763550525 -0.0036783731919449  0.0068170562427446
  4.3722357396501819  2.2086802420256957  2.1675099037095138
  6.5338382269267745 -0.0223292606857994  2.1902067693207901
  6.5845607268229340  2.2082520107007837  0.0120258099087955
  4.3608501191421754 -0.0303990572666132  4.3948949918994762
  4.3677348599961592  2.1885904755166345  6.5453763333239632
  6.5539744325372560 -0.0076248530744578  6.5544993539618073
  6.5609067367245588  2.2080810148293524  4.3299400160324746
  4.3707109916827243  4.3849729914576212  0.0176780174761021
  4.3704020200338727  6.5711831126832685  2.2003310275378603
  6.5632400312434518  4.3556269859022976  2.1840828564015462
  6.5898974898983989  6.5667945426392809 -0.0126260503753766
  4.3577003530648870  4.3577141975408411  4.3731275553139497
  4.3456946320134238  6.5552775451719585  6.5534252381150120
  6.5413579682953245  4.3704288795710520  6.5531719519879230
  6.5706154871943916  6.5826041485055047  4.3626299723139548
