 C Si                                   
   1.00000000000000     
     8.7433155800000009    0.0000000000000000    0.0000000000000000
     0.0000000000000000    8.7433155800000009    0.0000000000000000
     0.0000000000000000    0.0000000000000000    8.7433155800000009
   C    Si
    32    32
Direct
  0.1280637336658117  0.1227863392597328  0.1245076948271162
  0.1280011408438924  0.3746747028472655  0.3766323092240924
  0.3751771748010810  0.1257405390532611  0.3763802077456120
  0.3765258462097449  0.3741107076555252  0.1229994317458107
  0.1241646783819448  0.1266998893485010  0.6267344991698849
  0.1238304958447642  0.3726567552090145  0.8744662852294596
  0.3772692337855332  0.1292171601622982  0.8758212217396348
  0.3752499142554484  0.3742104476918229  0.6241948452712691
  0.1273682156990077  0.6256238621307872  0.1195832679916222
  0.1254695991870918  0.8728332524771432  0.3733601656816390
  0.3727539461612537  0.6226386042453385  0.3785574402827265
  0.3775116104529630  0.8739717090354731  0.1287370759590871
  0.1232706725225228  0.6211483638007635  0.6229098256170076
  0.1264980602165622  0.8746173068211789  0.8764984374392029
  0.3729421312150478  0.6254921138422276  0.8776510691659638
  0.3768583766030531  0.8789687705464573  0.6244984745248630
  0.6280375856104783  0.1228927482913278  0.1240188560170381
  0.6225982603887559  0.3739513608790759  0.3709330829150090
  0.8767380796448236  0.1232343315058628  0.3761487407598239
  0.8788155190838864  0.3768490699589435  0.1241406161760139
  0.6269960547168836  0.1201366547181948  0.6214870171906739
  0.6279247338484666  0.3767765767180293  0.8704007441507216
  0.8752564916444712  0.1255584752435723  0.8793626769903042
  0.8783642338465185  0.3730992557082757  0.6223968295010565
  0.6253848790885925  0.6276040330573593  0.1260178054715055
  0.6238112438199366  0.8739544078219268  0.3723253910751225
  0.8778976749064071  0.6290438827687410  0.3731658668127196
  0.8747363163645261  0.8724607024389428  0.1265607939488760
  0.6245790963622895  0.6263306192737090  0.6260065092980795
  0.6272557690271015  0.8765623773712221  0.8752598060090264
  0.8739633299885199  0.6218228772409020  0.8729189977345442
  0.8723205445914104  0.8758758453628417  0.6246893172116117
  0.0001392935415794  0.9990004141010687  0.9974959898220064
  0.9994919261897905  0.2491267487084627  0.2527261708452997
  0.2491690117194096  0.9974017263125816  0.2505330000043386
  0.2476994475465162  0.2474061738877111  0.9981261457118507
  0.9998433503824700  0.9987631137994128  0.4981852735067847
  0.0018255975855084  0.2460524103002513  0.7511416026173450
  0.2519912368197268  0.0034700478523533  0.7501130403299499
  0.2452512070786170  0.2512588585591473  0.5012668480677931
  0.9994981398515250  0.5010076776351937  0.9995276099119295
  0.0044681176032313  0.7518707193202658  0.2488810454519950
  0.2479420109416850  0.5043116839065789  0.2497407602222026
  0.2451621880913848  0.7463675128042055  0.0038065148134621
  0.9993761062486186  0.5022455397794374  0.4962982488097012
  0.0025282465711882  0.7469573732007291  0.7482718064912461
  0.2493628384671354  0.5009328870106131  0.7519836841717904
  0.2489988732135657  0.7510330550241306  0.4982543928661585
  0.5059471242789897  0.0006871633537529  0.0014900195183714
  0.5002486823902856  0.2480666907567723  0.2534490481858285
  0.7474114131620126  0.0011493362832553  0.2480292619129898
  0.7501295496200626  0.2503155683082525  0.9982516326825106
  0.5011154039359553  0.0015148842991266  0.5010638793984796
  0.5032176856060175  0.2460683971638318  0.7536420300308819
  0.7524296486074320  0.9986261753199557  0.7498220542898082
  0.7486821842567153  0.2469505046644542  0.4999321831189789
  0.5019904403402222  0.5015861740475103  0.9935205851304403
  0.4979115576191191  0.7520165835734218  0.2511446392307022
  0.7463284266538608  0.5054093126732013  0.2478055456695429
  0.7505633357907726  0.7465378569777528  0.9958623292219286
  0.4990972662526261  0.4985652301916943  0.4971036409886906
  0.4986020025002205  0.7531236296094619  0.7466277211441437
  0.7523357026491624  0.4999026359278105  0.7508659470322030
  0.7476757609571720  0.7470898533909391  0.5045293194970171
 
  0.00000000E+00  0.00000000E+00  0.00000000E+00
  0.00000000E+00  0.00000000E+00  0.00000000E+00
  0.00000000E+00  0.00000000E+00  0.00000000E+00
  0.00000000E+00  0.00000000E+00  0.00000000E+00
  0.00000000E+00  0.00000000E+00  0.00000000E+00
  0.00000000E+00  0.00000000E+00  0.00000000E+00
  0.00000000E+00  0.00000000E+00  0.00000000E+00
  0.00000000E+00  0.00000000E+00  0.00000000E+00
  0.00000000E+00  0.00000000E+00  0.00000000E+00
  0.00000000E+00  0.00000000E+00  0.00000000E+00
  0.00000000E+00  0.00000000E+00  0.00000000E+00
  0.00000000E+00  0.00000000E+00  0.00000000E+00
  0.00000000E+00  0.00000000E+00  0.00000000E+00
  0.00000000E+00  0.00000000E+00  0.00000000E+00
  0.00000000E+00  0.00000000E+00  0.00000000E+00
  0.00000000E+00  0.00000000E+00  0.00000000E+00
  0.00000000E+00  0.00000000E+00  0.00000000E+00
  0.00000000E+00  0.00000000E+00  0.00000000E+00
  0.00000000E+00  0.00000000E+00  0.00000000E+00
  0.00000000E+00  0.00000000E+00  0.00000000E+00
  0.00000000E+00  0.00000000E+00  0.00000000E+00
  0.00000000E+00  0.00000000E+00  0.00000000E+00
  0.00000000E+00  0.00000000E+00  0.00000000E+00
  0.00000000E+00  0.00000000E+00  0.00000000E+00
  0.00000000E+00  0.00000000E+00  0.00000000E+00
  0.00000000E+00  0.00000000E+00  0.00000000E+00
  0.00000000E+00  0.00000000E+00  0.00000000E+00
  0.00000000E+00  0.00000000E+00  0.00000000E+00
  0.00000000E+00  0.00000000E+00  0.00000000E+00
  0.00000000E+00  0.00000000E+00  0.00000000E+00
  0.00000000E+00  0.00000000E+00  0.00000000E+00
  0.00000000E+00  0.00000000E+00  0.00000000E+00
  0.00000000E+00  0.00000000E+00  0.00000000E+00
  0.00000000E+00  0.00000000E+00  0.00000000E+00
  0.00000000E+00  0.00000000E+00  0.00000000E+00
  0.00000000E+00  0.00000000E+00  0.00000000E+00
  0.00000000E+00  0.00000000E+00  0.00000000E+00
  0.00000000E+00  0.00000000E+00  0.00000000E+00
  0.00000000E+00  0.00000000E+00  0.00000000E+00
  0.00000000E+00  0.00000000E+00  0.00000000E+00
  0.00000000E+00  0.00000000E+00  0.00000000E+00
  0.00000000E+00  0.00000000E+00  0.00000000E+00
  0.00000000E+00  0.00000000E+00  0.00000000E+00
  0.00000000E+00  0.00000000E+00  0.00000000E+00
  0.00000000E+00  0.00000000E+00  0.00000000E+00
  0.00000000E+00  0.00000000E+00  0.00000000E+00
  0.00000000E+00  0.00000000E+00  0.00000000E+00
  0.00000000E+00  0.00000000E+00  0.00000000E+00
  0.00000000E+00  0.00000000E+00  0.00000000E+00
  0.00000000E+00  0.00000000E+00  0.00000000E+00
  0.00000000E+00  0.00000000E+00  0.00000000E+00
  0.00000000E+00  0.00000000E+00  0.00000000E+00
  0.00000000E+00  0.00000000E+00  0.00000000E+00
  0.00000000E+00  0.00000000E+00  0.00000000E+00
  0.00000000E+00  0.00000000E+00  0.00000000E+00
  0.00000000E+00  0.00000000E+00  0.00000000E+00
  0.00000000E+00  0.00000000E+00  0.00000000E+00
  0.00000000E+00  0.00000000E+00  0.00000000E+00
  0.00000000E+00  0.00000000E+00  0.00000000E+00
  0.00000000E+00  0.00000000E+00  0.00000000E+00
  0.00000000E+00  0.00000000E+00  0.00000000E+00
  0.00000000E+00  0.00000000E+00  0.00000000E+00
  0.00000000E+00  0.00000000E+00  0.00000000E+00
  0.00000000E+00  0.00000000E+00  0.00000000E+00
