 C Si 
 1.0000000000000000
     8.7433155800000009    0.0000000000000000    0.0000000000000000
     0.0000000000000000    8.7433155800000009    0.0000000000000000
     0.0000000000000000    0.0000000000000000    8.7433155800000009
 C   Si 
  32  32
Cartesian
  1.1197016377932927  1.0735597130608012  1.0886100680118009
  1.1191543689981789  3.2758991668363797  3.2930151371703906
  3.2802924376986451  1.0993892141419652  3.2908109343858483
  3.2920842974383278  3.2709679788893915  1.0754228479143051
  1.0856109669825194  1.1077771165250461  5.4797375111155748
  1.0826891035986723  3.2582556138112406  7.6457346958314503
  3.2985839696116965  1.1297864096503627  7.6575813333307625
  3.2809284217033103  3.2718400375027175  5.4575325156159940
  1.1136205047179319  5.4700268609878764  1.0455542501384452
  1.0970203013888502  7.6314565751254744  3.2644057535556783
  3.2591053849781431  5.4439258092077125  3.3098471655488533
  3.3007031453043090  7.6414104600890624  1.1255888819567494
  1.0777943916232584  5.4308961667107418  5.4462971832522520
  1.1060124607312678  7.6470551252672747  7.6635024439078405
  3.2607507462909520  5.4688749441238524  7.6735802668424267
  3.2949917156069528  7.6851013458522868  5.4601872419994812
  5.4911308070936924  1.0744900808046025  1.0843359960275294
  5.4435730701379104  3.2695747597362068  3.2431850029882496
  7.6655977113378944  1.0774766506461002  3.2887871454827744
  7.6837614199519493  3.2949103446805634  1.0854005835225524
  5.4820243738046734  1.0503926849266543  5.4338571201709227
  5.4901441085246701  3.2942765133978185  7.6101883871765690
  7.6526437198912207  1.0977973727981913  7.6885453941998261
  7.6798156907050430  3.2621245353205857  5.4418118963192184
  5.4679373568317322  5.4873401203012717  1.1018134419364511
  5.4541785670700191  7.6412591901191051  3.2553583926167060
  7.6757364186549708  5.4999291807156014  3.2627069372278541
  7.6480956632617643  7.6281992525721254  1.1065609615503591
  5.4608921441667357  5.4762062617268885  5.4733724659272882
  5.4842951379795659  7.6640614909116760  7.6526726984265103
  7.6413371994373023  5.4367936505808325  7.6322062729704516
  7.6269738082801926  7.6580589249066051  5.4618558398358550
  0.0012178873923016 -0.0087396949636906 -0.0218933512017268
 -0.0044422496606119  2.1781937833774685  2.2096646670254740
  2.1785633022195037 -0.0227175268123104  2.1904890822420864
  2.1657144388908307  2.1631502547406130 -0.0163836993921992
 -0.0013696370415605 -0.0108144863882588  4.3557910635784562
  0.0159617758122118  2.1513138724747236  6.5674680769504210
  2.2032389069094127  0.0303397234508404  6.5584750322780057
  2.1443086998642653  2.1968354926531863  4.3827342424486444
 -0.0043879216551648  4.3804682335673917 -0.0041302556168496
  0.0390661622535800  6.5738429743786968  2.1760455222670880
  2.1678352472029796  4.4093562030763991  2.1835622798118410
  2.1435303787663038  6.5257267031068675  0.0332815602740412
 -0.0054548999567109  4.3912912529390464  4.3392922111445609
  0.0221052576359376  6.5308840387017879  6.5423765437696426
  2.1802579906427466  4.3798143155342864  6.5748306617249908
  2.1770757275705912  6.5665190110874976  4.3563953959501056
  4.4236553743646843  0.0060080860568720  0.0130277108695055
  4.3738320986174593  2.1689253621727254  2.2159850117393307
  6.5348538533692375  0.0100490098320360  2.1685981099797140
  6.5586193782115032  2.1885880083060978 -0.0152865272065652
  4.3814101186112326  0.0132451114944313  4.3809596233199777
  4.3997910306906096  2.1514536506681274  6.5893301029118385
  6.5787298695232810 -0.0120117827292360  6.5559308494996769
  6.5459646060801511  2.1591661949216094  4.3710648456075516
  4.3890608380377225  4.3855262102622081 -0.0566515689783097
  4.3533978791933299  6.5751183115758813  2.1958368370192671
  6.5253849605595926  4.4189531177727224  2.1666420882629307
  6.5624121075962067  6.5272160759734010 -0.0361769613788065
  4.3637649039620205  4.3591131447813263  4.3463340091311258
  4.3594346566793920  6.5847975644305707  6.5280017867395106
  6.5779084703626616  4.3708065051906804  6.5650579331781413
  6.5371651295652073  6.5320423548129165  4.4112590597250696
