 C Si                                   
   1.00000000000000     
     8.7433155800000009    0.0000000000000000    0.0000000000000000
     0.0000000000000000    8.7433155800000009    0.0000000000000000
     0.0000000000000000    0.0000000000000000    8.7433155800000009
   C    Si
    32    32
Direct
  0.1248374124181240  0.1225559564245273  0.1287512691221835
  0.1208364511009066  0.3820944775882822  0.3715222387800310
  0.3852523619133805  0.1225351281014397  0.3791334533919652
  0.3734045722133388  0.3765632555334477  0.1267714386205299
  0.1231413151680130  0.1254345084695814  0.6249394256353824
  0.1310978485261387  0.3713070602059361  0.8696927763349862
  0.3645747943226425  0.1222284606095627  0.8769102253344983
  0.3760955993422499  0.3769654812553682  0.6261355377734645
  0.1257045996402653  0.6260677745040724  0.1255399711549998
  0.1241768481209036  0.8726173970882698  0.3759862076456741
  0.3758522313378450  0.6245163594613956  0.3716815671726579
  0.3787389809651529  0.8792944351392151  0.1212298579377631
  0.1239666560661092  0.6253722065044869  0.6269180142657831
  0.1248516412846001  0.8793876793743394  0.8732587983163782
  0.3723159492411767  0.6254920547191816  0.8738447832265095
  0.3728624522805077  0.8813305242748939  0.6231478175498708
  0.6217241237046593  0.1233160441043424  0.1261827284430410
  0.6224299135520326  0.3791877788342006  0.3735127628619210
  0.8778440269036167  0.1283843011352346  0.3710006596077733
  0.8732606928198976  0.3779552451905346  0.1238761215979380
  0.6311148354718696  0.1248892724908472  0.6204908986760387
  0.6209802999745762  0.3756278732233724  0.8746346739508652
  0.8689079321066586  0.1268144873459960  0.8747824902477674
  0.8745061880495228  0.3726159883815043  0.6283889187015603
  0.6282793447214061  0.6255463686710598  0.1274675763161852
  0.6200520631264084  0.8693393014488677  0.3733959045712183
  0.8725707929965054  0.6245904045297195  0.3736545983666559
  0.8746744964225357  0.8800975746839796  0.1253998755706363
  0.6226430024663543  0.6221334844486961  0.6229690090512605
  0.6298704193962266  0.8711834368170130  0.8797352065817989
  0.8726656946464431  0.6274180502612623  0.8747657367916162
  0.8742599040933570  0.8724396336012816  0.6260349998389145
  0.0014282436452788  0.9966874489791451  0.9961384260499528
  0.9951451779802554  0.2534489098112189  0.2541204982746947
  0.2520562702467686  0.0011120057391025  0.2509076037592379
  0.2532908546158765  0.2489889185270115  0.0002497976888733
  0.9958439455489199  0.9967461735304823  0.5000994968231964
  0.0006568551410098  0.2515473059878062  0.7462856506833973
  0.2555816440300376  0.0046437230735279  0.7471686466477436
  0.2523345199951308  0.2471460225455857  0.5000807676406893
  0.0023006149715812  0.5025680251875499  0.9987934972688919
  0.0027133990615980  0.7507950255883813  0.2508313223767615
  0.2473516002824496  0.4949601936433510  0.2543521444202597
  0.2503876795744659  0.7498424593319228  0.9994935200180706
  0.9977296801195195  0.4965870334098952  0.5004236443300059
  0.9961542603058433  0.7453976811469971  0.7523567797920876
  0.2491247857687569  0.4964880989833205  0.7526342938294661
  0.2494028229781833  0.7495109827503512  0.5019624531585833
  0.5014156541289552  0.0006830488333520  0.0013736506618613
  0.5033666355629052  0.2490567378266704  0.2522849979912110
  0.7534890855552803  0.0058430136708836  0.2462186284724410
  0.7532048062986831  0.2489134610778052  0.9960935065623246
  0.4983475980823826  0.9996504913884365  0.4991629108164020
  0.5023405475254634  0.2489853611469286  0.7490588915930445
  0.7481811546312613  0.9969225620793836  0.7498220589817990
  0.7532185122132091  0.2472109129308251  0.5015872579711100
  0.5027874287634688  0.4986644025683589  0.9993862267250506
  0.5034480042879892  0.7508750004894083  0.2449072512837844
  0.7491822834437656  0.4987018121198119  0.2464772531060362
  0.7477220227293060  0.7499239579919177  0.0011530876235426
  0.5016666958680673  0.4969132073913158  0.5040466287425431
  0.4968549585155557  0.7487965735406732  0.7521438933189799
  0.7490811550564587  0.5004725635680387  0.7483622597301860
  0.7541231608560039  0.7482273069705414  0.4987814173863541
 
  0.00000000E+00  0.00000000E+00  0.00000000E+00
  0.00000000E+00  0.00000000E+00  0.00000000E+00
  0.00000000E+00  0.00000000E+00  0.00000000E+00
  0.00000000E+00  0.00000000E+00  0.00000000E+00
  0.00000000E+00  0.00000000E+00  0.00000000E+00
  0.00000000E+00  0.00000000E+00  0.00000000E+00
  0.00000000E+00  0.00000000E+00  0.00000000E+00
  0.00000000E+00  0.00000000E+00  0.00000000E+00
  0.00000000E+00  0.00000000E+00  0.00000000E+00
  0.00000000E+00  0.00000000E+00  0.00000000E+00
  0.00000000E+00  0.00000000E+00  0.00000000E+00
  0.00000000E+00  0.00000000E+00  0.00000000E+00
  0.00000000E+00  0.00000000E+00  0.00000000E+00
  0.00000000E+00  0.00000000E+00  0.00000000E+00
  0.00000000E+00  0.00000000E+00  0.00000000E+00
  0.00000000E+00  0.00000000E+00  0.00000000E+00
  0.00000000E+00  0.00000000E+00  0.00000000E+00
  0.00000000E+00  0.00000000E+00  0.00000000E+00
  0.00000000E+00  0.00000000E+00  0.00000000E+00
  0.00000000E+00  0.00000000E+00  0.00000000E+00
  0.00000000E+00  0.00000000E+00  0.00000000E+00
  0.00000000E+00  0.00000000E+00  0.00000000E+00
  0.00000000E+00  0.00000000E+00  0.00000000E+00
  0.00000000E+00  0.00000000E+00  0.00000000E+00
  0.00000000E+00  0.00000000E+00  0.00000000E+00
  0.00000000E+00  0.00000000E+00  0.00000000E+00
  0.00000000E+00  0.00000000E+00  0.00000000E+00
  0.00000000E+00  0.00000000E+00  0.00000000E+00
  0.00000000E+00  0.00000000E+00  0.00000000E+00
  0.00000000E+00  0.00000000E+00  0.00000000E+00
  0.00000000E+00  0.00000000E+00  0.00000000E+00
  0.00000000E+00  0.00000000E+00  0.00000000E+00
  0.00000000E+00  0.00000000E+00  0.00000000E+00
  0.00000000E+00  0.00000000E+00  0.00000000E+00
  0.00000000E+00  0.00000000E+00  0.00000000E+00
  0.00000000E+00  0.00000000E+00  0.00000000E+00
  0.00000000E+00  0.00000000E+00  0.00000000E+00
  0.00000000E+00  0.00000000E+00  0.00000000E+00
  0.00000000E+00  0.00000000E+00  0.00000000E+00
  0.00000000E+00  0.00000000E+00  0.00000000E+00
  0.00000000E+00  0.00000000E+00  0.00000000E+00
  0.00000000E+00  0.00000000E+00  0.00000000E+00
  0.00000000E+00  0.00000000E+00  0.00000000E+00
  0.00000000E+00  0.00000000E+00  0.00000000E+00
  0.00000000E+00  0.00000000E+00  0.00000000E+00
  0.00000000E+00  0.00000000E+00  0.00000000E+00
  0.00000000E+00  0.00000000E+00  0.00000000E+00
  0.00000000E+00  0.00000000E+00  0.00000000E+00
  0.00000000E+00  0.00000000E+00  0.00000000E+00
  0.00000000E+00  0.00000000E+00  0.00000000E+00
  0.00000000E+00  0.00000000E+00  0.00000000E+00
  0.00000000E+00  0.00000000E+00  0.00000000E+00
  0.00000000E+00  0.00000000E+00  0.00000000E+00
  0.00000000E+00  0.00000000E+00  0.00000000E+00
  0.00000000E+00  0.00000000E+00  0.00000000E+00
  0.00000000E+00  0.00000000E+00  0.00000000E+00
  0.00000000E+00  0.00000000E+00  0.00000000E+00
  0.00000000E+00  0.00000000E+00  0.00000000E+00
  0.00000000E+00  0.00000000E+00  0.00000000E+00
  0.00000000E+00  0.00000000E+00  0.00000000E+00
  0.00000000E+00  0.00000000E+00  0.00000000E+00
  0.00000000E+00  0.00000000E+00  0.00000000E+00
  0.00000000E+00  0.00000000E+00  0.00000000E+00
  0.00000000E+00  0.00000000E+00  0.00000000E+00
