 C Si 
 1.0000000000000000
     8.7433155800000009    0.0000000000000000    0.0000000000000000
     0.0000000000000000    8.7433155800000009    0.0000000000000000
     0.0000000000000000    0.0000000000000000    8.7433155800000009
 C   Si 
  32  32
Cartesian
  1.0914928929622383  1.0715454032283680  1.1257129772607779
  1.0565112255424658  3.3407725989295760  3.2483361786419085
  3.3683829781490733  1.0713632946266027  3.3148834299411880
  3.2647940138761316  3.2924113789610847  1.1084026943898828
  1.0766633794501939  1.0967134921717530  5.4640426167141065
  1.1462298615230810  3.2464548044625579  7.6039984011431123
  3.1875924792764749  1.0686820039670228  7.6671028354284188
  3.2883225132985574  3.2959281653822479  5.4745006026063905
  1.0990749845123735  5.4739081269574026  1.0976355857122733
  1.0857173708507728  7.6295692833408992  3.2873660671735170
  3.2861946700339564  5.4603436156436791  3.2497292370594861
  3.3114344330259220  7.6879487341600132  1.0599509056684067
  1.0838795953833280  5.4678265564296513  5.4813420415126597
  1.0916173004321932  7.6887639979337150  7.6351772566916489
  3.2552758396828825  5.4688744271924108  7.6403007076860545
  3.2600540882211755  7.7057509040222270  5.4483780218267812
  5.4359302172488073  1.0781910896814710  1.1032554155229251
  5.4421011606175149  3.3153584144266595  3.2657399588594989
  7.6752673572363630  1.1225044603430798  3.2437758473389517
  7.6351938209337806  3.3045819838171462  1.0830880239572396
  5.5180361737503452  1.0919463219440833  5.4251477416424327
  5.4294267316407554  3.2842330362361682  7.6472069715628148
  7.5971362603737100  1.1087790829819588  7.6484993760945121
  7.6460835787798080  3.2578991765730998  5.4942026231827006
  5.4932445832948646  5.4693493112140850  1.1144892459501703
  5.4213108639442771  7.6009078586641987  3.2647182299457027
  7.6291618090593145  5.4609910150431737  3.2669800714378252
  7.6475551519998328  7.6949708366546243  1.0964106858067919
  5.4439642642420765  5.4395093874199469  5.4468146426950632
  5.5071558512881600  7.6170317161601266  7.6918025379811592
  7.6299915641337712  5.4857140140224896  7.6483528953403290
  7.6439302404287366  7.6280150410755825  5.4736215677168651
  0.0124875849157942 -0.0289626789501998 -0.0337629596807606
 -0.0424472410033298  2.2159838018864293  2.2218557117624869
  2.2038075146852765  0.0097226171037442  2.1937643610886286
  2.2146018754344912  2.1769886906045590  0.0021840600249526
 -0.0363376956334481 -0.0284492316655811  4.3725277221244223
  0.0057430917881958  2.1993574795501964  6.5250109567505969
  2.2346309702098237  0.0406015362980023  6.5327312691227188
  2.2062403400452371  2.1608756694578624  4.3723639669712115
  0.0201150027245770  4.3941108446321397 -0.0105488341262260
  0.0237241042900570  6.5644378446133844  2.1930974088887609
  2.1626731004874831  4.3275931725617438  2.2238810671160389
  2.1892184998634527  6.5561092572223370 -0.0044283143169826
 -0.0198501231826066  4.3418171460387365  4.3753618460709180
 -0.0336245157845266  6.5172471588683907  6.5780927544748007
  2.1781766207761262  4.3409521311254426  6.5805191472814473
  2.1806075878411555  6.5532110528622720  4.3888161372764829
  4.3840353008015560  0.0059721115065185  0.0120102612333229
  4.4010933471693594  2.1775816561439161  2.2058073535368488
  6.5879928610954277  0.0510873124628163  2.1527671704093039
  6.5855073178421604  2.1763289423133005 -0.0341557049368201
  4.3572103185692992 -0.0030558640888334  4.3643388550992031
  4.3921219356450845  2.1769575873078866  6.5492582772030046
  6.5415839459498955 -0.0269070109178339  6.5559308905232125
  6.5856271529781729  2.1614430265741120  4.3855356873482574
  4.3960291593357566  4.3599802401673031 -0.0053664134374758
  4.4018047796110755  6.5651370904115280  2.1413013858044669
  6.5503371310938538  4.3603073236813721  2.1550284071976242
  6.5375696108382728  6.5568218257259936  0.0100818089840282
  4.3862302379504081  4.3446689880922484  4.4070387421311512
  4.3441596997893344  6.5469647476887740  6.5762314208577051
  6.5494529336895031  4.3757895624069487  6.5431674049829702
  6.5935367815511423  6.5419874704169692  4.3610033376486177
