 C Si                                   
   1.00000000000000     
     8.7433155800000009    0.0000000000000000    0.0000000000000000
     0.0000000000000000    8.7433155800000009    0.0000000000000000
     0.0000000000000000    0.0000000000000000    8.7433155800000009
   C    Si
    32    32
Direct
  0.1283853234612877  0.1254823246451906  0.1304467855373730
  0.1214047423051596  0.3793103080181410  0.3718312683236817
  0.3761399562501850  0.1231804676182193  0.3758039341768153
  0.3788112790003382  0.3737279880913178  0.1265653174570289
  0.1236775870490874  0.1295209418956844  0.6306562716244457
  0.1280476595315463  0.3733262457973652  0.8802049320877927
  0.3784806372530056  0.1231763943053963  0.8760550020809390
  0.3803165958196999  0.3779413910854430  0.6238240181411854
  0.1205322864781948  0.6217519139326768  0.1298709523820705
  0.1276203260382829  0.8779557298019611  0.3699940981484815
  0.3738064108981405  0.6268353509605546  0.3692314106945247
  0.3685969530693356  0.8742918882903723  0.1253198324523339
  0.1217985219766149  0.6246550108683948  0.6236091948356872
  0.1251839279775311  0.8667861186813823  0.8703206373394181
  0.3810235266181081  0.6192689520788619  0.8726577637636481
  0.3743908876619884  0.8817021929327282  0.6264525347756162
  0.6321291607306705  0.1215609348696489  0.1197201545947877
  0.6256712183937836  0.3688720561095948  0.3665507910813872
  0.8755158519810777  0.1231516131058186  0.3793982549255546
  0.8761105839332330  0.3800041768887255  0.1231926395396101
  0.6237090815913646  0.1233827424691185  0.6300780165322095
  0.6276452874291962  0.3805593871987014  0.8798726658972456
  0.8737595429910954  0.1246866939815021  0.8757959549264882
  0.8770096338725750  0.3755297682475245  0.6267999313371959
  0.6214003395182104  0.6254916217620448  0.1279983648473788
  0.6263207538455475  0.8704531496573082  0.3742123789700713
  0.8754346911409030  0.6216129451223296  0.3724536169325887
  0.8684226836442335  0.8674364615231909  0.1220999675420629
  0.6185454041924672  0.6125679384832239  0.6259669291808692
  0.6264684566343419  0.8733397490158339  0.8784361785286237
  0.8735327810222984  0.6249514992619609  0.8778339616258179
  0.8758216373309153  0.8761795719780920  0.6245108180042962
  0.9986359241528007  0.9981081286098572  0.9960299815619749
  0.0014853806475301  0.2498973383109941  0.2519782496483671
  0.2434141105825844  0.0015476168634976  0.2451671852421171
  0.2481411279602170  0.2472599388007808  0.9960229103044256
  0.0032933799244219  0.9995799946260178  0.5023881099289511
  0.9965559586255495  0.2463979740257471  0.7533742953985225
  0.2551420982727635  0.0010471427565619  0.7501816996074027
  0.2597067391224428  0.2501076139882059  0.4948242475776752
  0.0032202272145625  0.5022880798017653  0.0007269967114780
  0.9969239101938427  0.7491068203748412  0.2495231338235868
  0.2435331021594038  0.5004732227123299  0.2523766319062730
  0.2566490755680917  0.7506719288768409  0.9924507138768064
  0.0003653077362884  0.4976731985339669  0.5004332116017736
  0.0006230627353858  0.7513299047708131  0.7466178310763709
  0.2557998687510263  0.5011419267736983  0.7565439139334416
  0.2484179621082134  0.7503079883217083  0.4985818902755881
  0.5040536523960668  0.9943015435520905  0.0019365771186557
  0.5003219986416383  0.2454637368793726  0.2530586348542059
  0.7605017250149118  0.9976871300343504  0.2467247716913761
  0.7488730569591624  0.2485250783794868  0.9950274745980892
  0.4988435779733180  0.0033793564828670  0.4948707490171387
  0.5010699743379874  0.2447420613832563  0.7456369697855507
  0.7464629706350721  0.0008685954858763  0.7535863901390130
  0.7531585033262544  0.2531518069240590  0.4962589900036818
  0.5031277906934335  0.5023233290404008  0.0011111467660712
  0.5055070074648924  0.7495865377907407  0.2512778531681050
  0.7560461598390589  0.4984229562733802  0.2536580579812764
  0.7509148304066358  0.7437425551555918  0.9980470972779472
  0.4982936163666167  0.4906230595059782  0.4977266708798425
  0.5022441419699959  0.7532745532833047  0.7497449940912873
  0.7516994094020220  0.4994766443802945  0.7496911078785971
  0.7518691321639821  0.7492091603115014  0.5029717610559246
 
  0.00000000E+00  0.00000000E+00  0.00000000E+00
  0.00000000E+00  0.00000000E+00  0.00000000E+00
  0.00000000E+00  0.00000000E+00  0.00000000E+00
  0.00000000E+00  0.00000000E+00  0.00000000E+00
  0.00000000E+00  0.00000000E+00  0.00000000E+00
  0.00000000E+00  0.00000000E+00  0.00000000E+00
  0.00000000E+00  0.00000000E+00  0.00000000E+00
  0.00000000E+00  0.00000000E+00  0.00000000E+00
  0.00000000E+00  0.00000000E+00  0.00000000E+00
  0.00000000E+00  0.00000000E+00  0.00000000E+00
  0.00000000E+00  0.00000000E+00  0.00000000E+00
  0.00000000E+00  0.00000000E+00  0.00000000E+00
  0.00000000E+00  0.00000000E+00  0.00000000E+00
  0.00000000E+00  0.00000000E+00  0.00000000E+00
  0.00000000E+00  0.00000000E+00  0.00000000E+00
  0.00000000E+00  0.00000000E+00  0.00000000E+00
  0.00000000E+00  0.00000000E+00  0.00000000E+00
  0.00000000E+00  0.00000000E+00  0.00000000E+00
  0.00000000E+00  0.00000000E+00  0.00000000E+00
  0.00000000E+00  0.00000000E+00  0.00000000E+00
  0.00000000E+00  0.00000000E+00  0.00000000E+00
  0.00000000E+00  0.00000000E+00  0.00000000E+00
  0.00000000E+00  0.00000000E+00  0.00000000E+00
  0.00000000E+00  0.00000000E+00  0.00000000E+00
  0.00000000E+00  0.00000000E+00  0.00000000E+00
  0.00000000E+00  0.00000000E+00  0.00000000E+00
  0.00000000E+00  0.00000000E+00  0.00000000E+00
  0.00000000E+00  0.00000000E+00  0.00000000E+00
  0.00000000E+00  0.00000000E+00  0.00000000E+00
  0.00000000E+00  0.00000000E+00  0.00000000E+00
  0.00000000E+00  0.00000000E+00  0.00000000E+00
  0.00000000E+00  0.00000000E+00  0.00000000E+00
  0.00000000E+00  0.00000000E+00  0.00000000E+00
  0.00000000E+00  0.00000000E+00  0.00000000E+00
  0.00000000E+00  0.00000000E+00  0.00000000E+00
  0.00000000E+00  0.00000000E+00  0.00000000E+00
  0.00000000E+00  0.00000000E+00  0.00000000E+00
  0.00000000E+00  0.00000000E+00  0.00000000E+00
  0.00000000E+00  0.00000000E+00  0.00000000E+00
  0.00000000E+00  0.00000000E+00  0.00000000E+00
  0.00000000E+00  0.00000000E+00  0.00000000E+00
  0.00000000E+00  0.00000000E+00  0.00000000E+00
  0.00000000E+00  0.00000000E+00  0.00000000E+00
  0.00000000E+00  0.00000000E+00  0.00000000E+00
  0.00000000E+00  0.00000000E+00  0.00000000E+00
  0.00000000E+00  0.00000000E+00  0.00000000E+00
  0.00000000E+00  0.00000000E+00  0.00000000E+00
  0.00000000E+00  0.00000000E+00  0.00000000E+00
  0.00000000E+00  0.00000000E+00  0.00000000E+00
  0.00000000E+00  0.00000000E+00  0.00000000E+00
  0.00000000E+00  0.00000000E+00  0.00000000E+00
  0.00000000E+00  0.00000000E+00  0.00000000E+00
  0.00000000E+00  0.00000000E+00  0.00000000E+00
  0.00000000E+00  0.00000000E+00  0.00000000E+00
  0.00000000E+00  0.00000000E+00  0.00000000E+00
  0.00000000E+00  0.00000000E+00  0.00000000E+00
  0.00000000E+00  0.00000000E+00  0.00000000E+00
  0.00000000E+00  0.00000000E+00  0.00000000E+00
  0.00000000E+00  0.00000000E+00  0.00000000E+00
  0.00000000E+00  0.00000000E+00  0.00000000E+00
  0.00000000E+00  0.00000000E+00  0.00000000E+00
  0.00000000E+00  0.00000000E+00  0.00000000E+00
  0.00000000E+00  0.00000000E+00  0.00000000E+00
  0.00000000E+00  0.00000000E+00  0.00000000E+00
