 C Si 
 1.0000000000000000
     8.7433155800000009    0.0000000000000000    0.0000000000000000
     0.0000000000000000    8.7433155800000009    0.0000000000000000
     0.0000000000000000    0.0000000000000000    8.7433155800000009
 C   Si 
  32  32
Cartesian
  1.1225133988624252  1.0971315640849053  1.1405374123498302
  1.0614799748825940  3.3164297257495816  3.2510381214656334
  3.2887103397427842  1.0770057016780794  3.2857723927134366
  3.3120665575634041  3.2676217409609007  1.1066005120096594
  1.0813521737430785  1.1324424692128159  5.5140268053187471
  1.1195610965647256  3.2641091813030410  7.6959094963160357
  3.3091756524225451  1.0769700874185768  7.6596253486312014
  3.3252280175629303  3.3044608530042345  5.4542902569920289
  1.0538518182578342  5.4361731959823869  1.1355027213515867
  1.1158247849751890  7.6762440109277739  3.2349751628496497
  3.2683074163096060  5.4806192901482067  3.2283067457508126
  3.2227594825116221  7.6442098883568024  1.0957108435634779
  1.0649229148191233  5.4615558886507358  5.4524119890381346
  1.0945225878515206  7.5785845759946850  7.6094879880452844
  3.3314089366266781  5.4144638769213733  7.6299222219226470
  3.2734176811051223  7.7090005203889147  5.4772722074341411
  5.5269047395888107  1.0628456157651458  1.0467510929086372
  5.4704409117399804  3.2251647952096540  3.2048692425232193
  7.6549113891631624  1.0767534175702373  3.3171986733153984
  7.6601113183063338  3.3224964402562662  1.0771121246279987
  5.4532853304652509  1.0787742545333567  5.5089709385615393
  5.4877008202932576  3.3273508192096610  7.6930043881555257
  7.6395554254077274  1.0901751141071514  7.6573604176097350
  7.6679719956481724  3.2833752734723762  5.4803096052034537
  5.4330992699268581  5.4688706417115291  1.1191300975845901
  5.4761200051751207  7.6106465850588432  3.2718569232778894
  7.6542017743247657  5.4349581478177598  3.2564795117540486
  7.5928935799320687  7.5842707286957687  1.0675585485280392
  5.4081376694133825  5.3558748003488272  5.4730264044718782
  5.4774114172695834  7.6358850342034152  7.6804447257649811
  7.6375727739529884  5.4641481802414456  7.6751793533361168
  7.6575849669764926  7.6607145025538133  5.4602951649355314
 -0.0119265456071225 -0.0165412286007864 -0.0347111240620419
  0.0129871517577687  2.1849312914550252  2.2031253559717214
  2.1282463854485618  0.0135313026345026  2.1435740704321469
  2.1695761901333617  2.1618716752267284 -0.0347729502983665
  0.0287950600040371 -0.0036722395300427  4.3925377887485322
 -0.0301123406074138  2.1543352451797562  6.5869892145294529
  2.2307878829421530  0.0091554995779380  6.5590753420083141
  2.2706979784002335  2.1867697980597147  4.3264045532076949
  0.0281554627761948  4.3916631937790394  0.0063563616740589
 -0.0268952239276571  6.5496773336676357  2.1816595035302013
  2.1292867663560457  4.3757953255135442  2.2066085377740241
  2.2439638610071095  6.5633615712175217 -0.0660057909788046
  0.0031940008221898  4.3513138304904571  4.3754454957472362
  0.0054476341216181  6.5691144621025979  6.5279153147558500
  2.2365389778128093  4.3816420161517078  6.6147021896484386
  2.1719966384525828  6.5601795240916818  4.3592588091523989
  4.4071001521504591 -0.0498234030429332  0.0169321048933960
  4.3744731257401641  2.1461669149824441  2.2125715047742944
  6.6493065809397374 -0.0202221520051473  2.1571925403011742
  6.5476334663532807  2.1729331898160900 -0.0434763588184762
  4.3615468272770688  0.0295467801869951  4.3268111299678482
  4.3810129132995170  2.1398570783735513  6.5193393349500237
  6.5265613210466977  0.0075944044443666  6.5888436257783818
  6.5851024763419490  2.2133861375843003  4.3389489590142478
  4.3990050511008523  4.3919713889964100  0.0097151068314496
  4.4198072941669642  6.5538716544240643  2.1970015685136728
  6.6103501685200197  4.3578691990147016  2.2178124503402388
  6.5654853359474270  6.5027758700008711 -0.0170748447959329
  4.3567383393928019  4.2896722400859062  4.3517813560852394
  4.3912790314500212  6.5861171377394756  6.5552570878653906
  6.5723451577015144  4.3670819266563390  6.5547859437024245
  6.5738290973704068  6.5505721240302508  4.3976408347403302
