 C Si                                   
   1.00000000000000     
     8.7433155800000009    0.0000000000000000    0.0000000000000000
     0.0000000000000000    8.7433155800000009    0.0000000000000000
     0.0000000000000000    0.0000000000000000    8.7433155800000009
   C    Si
    32    32
Direct
  0.1214690099352609  0.1269059131800034  0.1211251243576896
  0.1251672397252577  0.3759731494591279  0.3757782903537361
  0.3780453182944399  0.1248108675082023  0.3738152704878814
  0.3717784885131081  0.3711103606833746  0.1222977448090887
  0.1236034864436917  0.1243576615529562  0.6273764907651795
  0.1267348257485068  0.3783955883737278  0.8779570771833320
  0.3760527416996595  0.1249197019817032  0.8780967999426466
  0.3765238832081010  0.3721569358275474  0.6259256009650258
  0.1239054355220901  0.6321031156527184  0.1269473442144502
  0.1310921964732685  0.8727949138477982  0.3723861496730052
  0.3713364286335548  0.6235702399936045  0.3746042555057656
  0.3724501828209839  0.8700808172286258  0.1264615367189634
  0.1274192857831764  0.6263633915383764  0.6220318124523558
  0.1227514560866325  0.8730895830212901  0.8752617952460682
  0.3753668789888067  0.6254758668501381  0.8683765488040009
  0.3730818290891307  0.8766390024747395  0.6244310709597158
  0.6258434957264853  0.1224327079436591  0.1261319884644010
  0.6262760003740055  0.3705716351998163  0.3784589066905966
  0.8707857409159487  0.1232696533789124  0.3785256124138385
  0.8765684824019644  0.3808289972973213  0.1273846544981510
  0.6234981220323306  0.1257511009149681  0.6278601786811535
  0.6244755342254251  0.3770223385502831  0.8725037593490015
  0.8740592570864365  0.1249748978816143  0.8714594998849776
  0.8754295027793546  0.3732143329776818  0.6246546665180830
  0.6272825122560448  0.6277398365078639  0.1243372915781435
  0.6223165484151352  0.8767586193210946  0.3791196651724960
  0.8781736045097190  0.6239795450464811  0.3747827833877579
  0.8705109450098831  0.8763619736537720  0.1213110447812369
  0.6246013577062755  0.6238383888330858  0.6242543886004412
  0.6271348307088047  0.8735692937425128  0.8746033999778717
  0.8742587626280027  0.6190506641596230  0.8759171055104602
  0.8725009304250051  0.8729310713888907  0.6355465062457597
  0.0064212314857102  0.9968975806558191  0.0019099575225141
  0.9987413193585652  0.2517712083948211  0.2475939635497753
  0.2429895211425048  0.0015895966431430  0.2504909156249724
  0.2500613041794253  0.2453834006933775  0.9988238075668150
  0.9937850466892044  0.9962781961065588  0.4954415911571957
  0.0033358143441262  0.2529726994874935  0.7481547303072205
  0.2545106267625812  0.9993833122118332  0.7461897783806606
  0.2431372391004771  0.2475545582954837  0.5044226926695359
  0.0020201071115338  0.5026801182115221  0.0003608254383494
  0.9989074008430734  0.7464059645092576  0.2479038771063031
  0.2508795581831151  0.4977011419585153  0.2512895034832425
  0.2573075089096406  0.7538476439329500  0.9988320899365277
  0.9996589908204285  0.4991426401400787  0.4992495659131890
  0.9941161116447432  0.7459288800878454  0.7486967652814158
  0.2535143500301800  0.5010521002995674  0.7501767091117770
  0.2530384306098270  0.7546052713200879  0.4984861807956875
  0.5069073829742834  0.0042358533326023  0.0000796529567140
  0.5002048454103729  0.2518331933873057  0.2467631747285921
  0.7472491891513187  0.9961025621974358  0.2452128347010714
  0.7488537807720022  0.2475332784321083  0.0013713838135629
  0.5010691850127245  0.0013918293168445  0.5005966755582989
  0.5003806943111684  0.2512228791854909  0.7545890296786766
  0.7522094817114535  0.9977550708373784  0.7494139047530552
  0.7498854479852355  0.2438852534504008  0.5066462129752836
  0.4992118584565119  0.5000516947617228  0.0022062028382237
  0.4950981863099670  0.7501016029596812  0.2461167998869058
  0.7465834375195115  0.5017161959348115  0.2461852912250748
  0.7503922446389382  0.7535211006214055  0.0027935665897516
  0.5011336916814315  0.4993050570078665  0.4983406250841469
  0.5070096680716745  0.7486812609899403  0.7468610858951905
  0.7516305409462163  0.5015101408989437  0.7481766473660159
  0.7533988894896311  0.7501585358825338  0.4968600721735470
 
  0.00000000E+00  0.00000000E+00  0.00000000E+00
  0.00000000E+00  0.00000000E+00  0.00000000E+00
  0.00000000E+00  0.00000000E+00  0.00000000E+00
  0.00000000E+00  0.00000000E+00  0.00000000E+00
  0.00000000E+00  0.00000000E+00  0.00000000E+00
  0.00000000E+00  0.00000000E+00  0.00000000E+00
  0.00000000E+00  0.00000000E+00  0.00000000E+00
  0.00000000E+00  0.00000000E+00  0.00000000E+00
  0.00000000E+00  0.00000000E+00  0.00000000E+00
  0.00000000E+00  0.00000000E+00  0.00000000E+00
  0.00000000E+00  0.00000000E+00  0.00000000E+00
  0.00000000E+00  0.00000000E+00  0.00000000E+00
  0.00000000E+00  0.00000000E+00  0.00000000E+00
  0.00000000E+00  0.00000000E+00  0.00000000E+00
  0.00000000E+00  0.00000000E+00  0.00000000E+00
  0.00000000E+00  0.00000000E+00  0.00000000E+00
  0.00000000E+00  0.00000000E+00  0.00000000E+00
  0.00000000E+00  0.00000000E+00  0.00000000E+00
  0.00000000E+00  0.00000000E+00  0.00000000E+00
  0.00000000E+00  0.00000000E+00  0.00000000E+00
  0.00000000E+00  0.00000000E+00  0.00000000E+00
  0.00000000E+00  0.00000000E+00  0.00000000E+00
  0.00000000E+00  0.00000000E+00  0.00000000E+00
  0.00000000E+00  0.00000000E+00  0.00000000E+00
  0.00000000E+00  0.00000000E+00  0.00000000E+00
  0.00000000E+00  0.00000000E+00  0.00000000E+00
  0.00000000E+00  0.00000000E+00  0.00000000E+00
  0.00000000E+00  0.00000000E+00  0.00000000E+00
  0.00000000E+00  0.00000000E+00  0.00000000E+00
  0.00000000E+00  0.00000000E+00  0.00000000E+00
  0.00000000E+00  0.00000000E+00  0.00000000E+00
  0.00000000E+00  0.00000000E+00  0.00000000E+00
  0.00000000E+00  0.00000000E+00  0.00000000E+00
  0.00000000E+00  0.00000000E+00  0.00000000E+00
  0.00000000E+00  0.00000000E+00  0.00000000E+00
  0.00000000E+00  0.00000000E+00  0.00000000E+00
  0.00000000E+00  0.00000000E+00  0.00000000E+00
  0.00000000E+00  0.00000000E+00  0.00000000E+00
  0.00000000E+00  0.00000000E+00  0.00000000E+00
  0.00000000E+00  0.00000000E+00  0.00000000E+00
  0.00000000E+00  0.00000000E+00  0.00000000E+00
  0.00000000E+00  0.00000000E+00  0.00000000E+00
  0.00000000E+00  0.00000000E+00  0.00000000E+00
  0.00000000E+00  0.00000000E+00  0.00000000E+00
  0.00000000E+00  0.00000000E+00  0.00000000E+00
  0.00000000E+00  0.00000000E+00  0.00000000E+00
  0.00000000E+00  0.00000000E+00  0.00000000E+00
  0.00000000E+00  0.00000000E+00  0.00000000E+00
  0.00000000E+00  0.00000000E+00  0.00000000E+00
  0.00000000E+00  0.00000000E+00  0.00000000E+00
  0.00000000E+00  0.00000000E+00  0.00000000E+00
  0.00000000E+00  0.00000000E+00  0.00000000E+00
  0.00000000E+00  0.00000000E+00  0.00000000E+00
  0.00000000E+00  0.00000000E+00  0.00000000E+00
  0.00000000E+00  0.00000000E+00  0.00000000E+00
  0.00000000E+00  0.00000000E+00  0.00000000E+00
  0.00000000E+00  0.00000000E+00  0.00000000E+00
  0.00000000E+00  0.00000000E+00  0.00000000E+00
  0.00000000E+00  0.00000000E+00  0.00000000E+00
  0.00000000E+00  0.00000000E+00  0.00000000E+00
  0.00000000E+00  0.00000000E+00  0.00000000E+00
  0.00000000E+00  0.00000000E+00  0.00000000E+00
  0.00000000E+00  0.00000000E+00  0.00000000E+00
  0.00000000E+00  0.00000000E+00  0.00000000E+00
