 C Si 
 1.0000000000000000
     8.7433155800000009    0.0000000000000000    0.0000000000000000
     0.0000000000000000    8.7433155800000009    0.0000000000000000
     0.0000000000000000    0.0000000000000000    8.7433155800000009
 C   Si 
  32  32
Cartesian
  1.0620418870541115  1.1095784479008295  1.0590351869259971
  1.0943766771954193  3.2872518953276906  3.2855481806755629
  3.3053695213898089  1.0912608024377819  3.2683848784986234
  3.2505766509255314  3.2447349984623393  1.0692877775881879
  1.0807042887654783  1.0872982797483295  5.4853506462329014
  1.1080825764955125  3.3084320432312571  7.6762557915082770
  3.2879477954043628  1.0922123765855762  7.6774774316866647
  3.2920671342954662  3.2538855352260811  5.4726650588383547
  1.0833443248469892  5.5266770192529666  1.1099406925098401
  1.1461804438411640  7.6311213683901888  3.2558896242121693
  3.2467115818932992  5.4520713945604289  3.2752832234978815
  3.2564494862325599  7.6073911651341666  1.1056931242656789
  1.1140670265805448  5.4764927999790993  5.4386204370703339
  1.0732547184699244  7.6336977539657278  7.6526900909536995
  3.2819510812787991  5.4687328915448186  7.5924902084646311
  3.2619721688899119  7.6647314483730611  5.4595979113581459
  5.4719471868270677  1.0704678028653851  1.1028117798771584
  5.4757287114501194  3.2400247515486171  3.3089856552576804
  7.6135545353922858  1.0777854809290635  3.3095688844469824
  7.6641148691220256  3.3297081053854405  1.1137642343266108
  5.4514408444660125  1.0994815598319971  5.4895796823245284
  5.4599866677219850  3.2964252866547228  7.6285757127247127
  7.6421759203270963  1.0926949717572321  7.6194454226833024
  7.6541564108423685  3.2631306922030694  5.4615528778872351
  5.4845289624698328  5.4885274927258640  1.0871201786301750
  5.4411099734498878  7.6657772962094217  3.3147628751870855
  7.6781489582545577  5.4556500778062276  3.2768441491099374
  7.6111519080654295  7.6623092979665808  1.0606607478618755
  5.4610867821224049  5.4544159044864351  5.4580531217335846
  5.4832377360969460  7.6378920161884949  7.6469335333475223
  7.6439202602369294  5.4125553167561931  7.6584196753981066
  7.6285509785494678  7.6323118367405751  5.5567836698731377
  0.0561428532917741 -0.0271254313876772  0.0166993613637624
 -0.0110050420625293  2.2013151289538904  2.1647921590187260
  2.1245340659819956  0.0138983450959119  2.1901211252322712
  2.1863648967871061  2.1454645103557630 -0.0102838216261313
 -0.0543392981112359 -0.0325409059672083  4.3318021829446876
  0.0291660775269738  2.2118201447436752  6.5413529097458509
  2.2252667282488297 -0.0053918959462926  6.5241727149523951
  2.1258256107053954  2.1644476264448937  4.4103267877230827
  0.0176624339815726  4.3950909093150594  0.0031548106767982
 -0.0095529392314592  6.5260628984987230  2.1675018310459300
  2.1935191497659234  4.3515581486696755  2.1971034308954769
  2.2497207515006625  6.5911278501452264 -0.0102114062540065
 -0.0029815508726860  4.3641616221790960  4.3650965079570412
 -0.0514446927274857  6.5218915988440216  6.5460920925806096
  2.2165559663724359  4.3808566349409288  6.5590317085301422
  2.2123948526896564  6.5977520254830626  4.3584219909656499
  4.4320512191760670  0.0370354024375545  0.0006964309374132
  4.3734488180680131  2.2018570833043749  2.1575283101747531
  6.5334354776490979 -0.0340765286612147  2.1439731980578571
  6.5474649285657227  2.1642615698839163  0.0119904414632599
  4.3810060119796566  0.0121692029506681  4.3768747127050514
  4.3749863205020807  2.1965209136349508  6.5976100196866714
  6.5768048808714896 -0.0196281241235393  6.5523622692960162
  6.5564851205845613  2.1323657362251240  4.4297677274548182
  4.3647668197636031  4.3721097736155601  0.0192895276480886
  4.3287996859936806  6.5583750317403435  2.1518768509509254
  6.5276146010342790  4.3866630326551581  2.1524756923350292
  6.5609162036628268  6.5882727789219064  0.0244250342879212
  4.3815700141412037  4.3655816841096664  4.3571493514451642
  4.4329455300617102  6.5459565336673720  6.5300421684031216
  6.5717430190588946  4.3848614284497165  6.5415445375074359
  6.5872042484293898  6.5588728142517692  4.3442044101149238
