 C Si                                   
   1.00000000000000     
     8.7433155800000009    0.0000000000000000    0.0000000000000000
     0.0000000000000000    8.7433155800000009    0.0000000000000000
     0.0000000000000000    0.0000000000000000    8.7433155800000009
   C    Si
    32    32
Direct
  0.1279531387758155  0.1259262737031293  0.1190877235745731
  0.1263815240079609  0.3662313644430171  0.3703132930238624
  0.3671887616421188  0.1199998494879679  0.3750952612290064
  0.3724365313353246  0.3830014980975989  0.1286448691171529
  0.1292280746233274  0.1222429945354477  0.6312729637190060
  0.1204712755912922  0.3798858930178284  0.8752316965620892
  0.3781341012943855  0.1196248350838900  0.8695769177526955
  0.3712708100216560  0.3726767723588651  0.6239757189800841
  0.1254185417356197  0.6314434383610603  0.1254940294772027
  0.1205846763400302  0.8718491757581504  0.3792024098132671
  0.3735181926189881  0.6308558843635055  0.3757708459500648
  0.3787437240554610  0.8773961935014896  0.1233004830080304
  0.1293043959824232  0.6182910692776247  0.6270167791077412
  0.1290250769556707  0.8786902417272131  0.8656977072922984
  0.3806775389953216  0.6339494927534162  0.8728028666553413
  0.3701960705872622  0.8780727669414290  0.6265774441235266
  0.6242080747787142  0.1248163477454867  0.1152832812995896
  0.6303112556512076  0.3740710115636361  0.3672941965303664
  0.8798763435897285  0.1249940732489279  0.3817551361218037
  0.8717848819539853  0.3815147617174617  0.1249641692816965
  0.6272850335440552  0.1268710332648979  0.6256288408287887
  0.6194659102744495  0.3765695038930659  0.8694909741212982
  0.8798034734294831  0.1271892033802615  0.8750683548854639
  0.8659636504597898  0.3787282687765554  0.6293660185735348
  0.6239176562266380  0.6217971575762675  0.1228431780807924
  0.6228928954082491  0.8703434964167016  0.3711816735885449
  0.8674266800320680  0.6225163951702442  0.3688060499874339
  0.8691754038067501  0.8720810387035129  0.1310643692495432
  0.6297932193618081  0.6260394538857454  0.6250355450794416
  0.6221279395381316  0.8777401291323201  0.8810193637310562
  0.8742541123361605  0.6250594055273169  0.8730039716505473
  0.8697760690786893  0.8811765889630863  0.6251051140833823
  0.9933693370838341  0.0055270464923822  0.9936670180122036
  0.9994321768912329  0.2477426583632649  0.2482772208083972
  0.2468196575908621  0.9982200185212022  0.2436725994702087
  0.2482231858986879  0.2457583654019118  0.0033155806384570
  0.0060636853105152  0.0118703750569651  0.5027558611336076
  0.9992010781581016  0.2465479309242085  0.7446272603403656
  0.2492236941867247  0.0030032694023134  0.7538420526526934
  0.2515550573943983  0.2513506202986946  0.4990656556432569
  0.9960873910099082  0.4984778481253187  0.9999738587102129
  0.9967310699330909  0.7518268004043094  0.2406470308008153
  0.2507542888989462  0.4975039787234508  0.2580449810543399
  0.2462555927663175  0.7550567088725231  0.9930444129702138
  0.9964273911862520  0.4956440062397149  0.5027486282470690
  0.9963405663496445  0.7565804739786870  0.7460443146048945
  0.2515037138486491  0.4973177355171785  0.7506371429736163
  0.2553689494914124  0.7504871239366366  0.5065892915349934
  0.5005680024422929  0.9957021094051299  0.9971844388583477
  0.5059543657481242  0.2473340720595658  0.2402443273514692
  0.7550204119663420  0.0056201812078243  0.2631254019347011
  0.7519459857014539  0.2426259863525502  0.0022906885745400
  0.4963906883588933  0.0058199333230178  0.4956021671174895
  0.4980418329708840  0.2537588805838880  0.7487272783847558
  0.7459898312958018  0.9971985996643653  0.7464417503580236
  0.7490898467835692  0.2473445871058999  0.4965470543295680
  0.5037307497203756  0.5005713740567046  0.9998492624145001
  0.4974432216197684  0.7451322649868288  0.2564263258436625
  0.7507033539019972  0.5010113390328996  0.2514005900710430
  0.7475219816659902  0.7481324544884629  0.0084224149274164
  0.5025422343716741  0.4986981016115521  0.5024238152626523
  0.4998433633409149  0.7517721191750013  0.7532395064795168
  0.7431937506576318  0.4912286144663085  0.7468705942100726
  0.7510253246160872  0.7381424376809775  0.5020430724699310
 
  0.00000000E+00  0.00000000E+00  0.00000000E+00
  0.00000000E+00  0.00000000E+00  0.00000000E+00
  0.00000000E+00  0.00000000E+00  0.00000000E+00
  0.00000000E+00  0.00000000E+00  0.00000000E+00
  0.00000000E+00  0.00000000E+00  0.00000000E+00
  0.00000000E+00  0.00000000E+00  0.00000000E+00
  0.00000000E+00  0.00000000E+00  0.00000000E+00
  0.00000000E+00  0.00000000E+00  0.00000000E+00
  0.00000000E+00  0.00000000E+00  0.00000000E+00
  0.00000000E+00  0.00000000E+00  0.00000000E+00
  0.00000000E+00  0.00000000E+00  0.00000000E+00
  0.00000000E+00  0.00000000E+00  0.00000000E+00
  0.00000000E+00  0.00000000E+00  0.00000000E+00
  0.00000000E+00  0.00000000E+00  0.00000000E+00
  0.00000000E+00  0.00000000E+00  0.00000000E+00
  0.00000000E+00  0.00000000E+00  0.00000000E+00
  0.00000000E+00  0.00000000E+00  0.00000000E+00
  0.00000000E+00  0.00000000E+00  0.00000000E+00
  0.00000000E+00  0.00000000E+00  0.00000000E+00
  0.00000000E+00  0.00000000E+00  0.00000000E+00
  0.00000000E+00  0.00000000E+00  0.00000000E+00
  0.00000000E+00  0.00000000E+00  0.00000000E+00
  0.00000000E+00  0.00000000E+00  0.00000000E+00
  0.00000000E+00  0.00000000E+00  0.00000000E+00
  0.00000000E+00  0.00000000E+00  0.00000000E+00
  0.00000000E+00  0.00000000E+00  0.00000000E+00
  0.00000000E+00  0.00000000E+00  0.00000000E+00
  0.00000000E+00  0.00000000E+00  0.00000000E+00
  0.00000000E+00  0.00000000E+00  0.00000000E+00
  0.00000000E+00  0.00000000E+00  0.00000000E+00
  0.00000000E+00  0.00000000E+00  0.00000000E+00
  0.00000000E+00  0.00000000E+00  0.00000000E+00
  0.00000000E+00  0.00000000E+00  0.00000000E+00
  0.00000000E+00  0.00000000E+00  0.00000000E+00
  0.00000000E+00  0.00000000E+00  0.00000000E+00
  0.00000000E+00  0.00000000E+00  0.00000000E+00
  0.00000000E+00  0.00000000E+00  0.00000000E+00
  0.00000000E+00  0.00000000E+00  0.00000000E+00
  0.00000000E+00  0.00000000E+00  0.00000000E+00
  0.00000000E+00  0.00000000E+00  0.00000000E+00
  0.00000000E+00  0.00000000E+00  0.00000000E+00
  0.00000000E+00  0.00000000E+00  0.00000000E+00
  0.00000000E+00  0.00000000E+00  0.00000000E+00
  0.00000000E+00  0.00000000E+00  0.00000000E+00
  0.00000000E+00  0.00000000E+00  0.00000000E+00
  0.00000000E+00  0.00000000E+00  0.00000000E+00
  0.00000000E+00  0.00000000E+00  0.00000000E+00
  0.00000000E+00  0.00000000E+00  0.00000000E+00
  0.00000000E+00  0.00000000E+00  0.00000000E+00
  0.00000000E+00  0.00000000E+00  0.00000000E+00
  0.00000000E+00  0.00000000E+00  0.00000000E+00
  0.00000000E+00  0.00000000E+00  0.00000000E+00
  0.00000000E+00  0.00000000E+00  0.00000000E+00
  0.00000000E+00  0.00000000E+00  0.00000000E+00
  0.00000000E+00  0.00000000E+00  0.00000000E+00
  0.00000000E+00  0.00000000E+00  0.00000000E+00
  0.00000000E+00  0.00000000E+00  0.00000000E+00
  0.00000000E+00  0.00000000E+00  0.00000000E+00
  0.00000000E+00  0.00000000E+00  0.00000000E+00
  0.00000000E+00  0.00000000E+00  0.00000000E+00
  0.00000000E+00  0.00000000E+00  0.00000000E+00
  0.00000000E+00  0.00000000E+00  0.00000000E+00
  0.00000000E+00  0.00000000E+00  0.00000000E+00
  0.00000000E+00  0.00000000E+00  0.00000000E+00
