 C Si 
 1.0000000000000000
     8.7433155800000009    0.0000000000000000    0.0000000000000000
     0.0000000000000000    8.7433155800000009    0.0000000000000000
     0.0000000000000000    0.0000000000000000    8.7433155800000009
 C   Si 
  32  32
Cartesian
  1.1187346717684965  1.1010131507999188  1.0412215489163015
  1.1049935478829442  3.2020763946193016  3.2377659843766566
  3.2104472204664267  1.0491965536257997  3.2795762414877467
  3.2563301269852740  3.3487029654800624  1.1247826884390857
  1.1298818382275289  1.0688090786676649  5.5194187389171807
  1.0533183808198074  3.3214622470450004  7.6524269286611606
  3.3061457791765161  1.0459176843439002  7.6029854129955412
  3.2461378576615614  3.2584306300693711  5.4556166253002765
  1.0965738899779116  5.5209092525110233  1.0972339031250167
  1.0543098793530248  7.6228524818163805  3.3154863376938986
  3.2657874329390526  5.5157720824900895  3.2854830919049913
  3.3114759033613477  7.6713518084742942  1.0780550341056157
  1.1305491399556136  5.4059139389898947  5.4822055736941326
  1.1281069655572233  7.6826660804875306  7.5690682517390533
  3.3283838576538383  5.5428204769240619  7.6311909022962992
  3.2367410716204135  7.6772673035727106  5.4783643292818276
  5.4576481853745564  1.0913087178818146  1.0079581095002539
  5.5110102217845380  3.2706209034307117  3.2113690709675251
  7.6930365433815346  1.0928626280450362  3.3378056293987659
  7.6222903407967415  3.3357039601242851  1.0926011682224084
  5.4845510068865533  1.1092734817956991  5.4700703913157076
  5.4161859445814802  3.2924660103411005  7.6022339807041295
  7.6923994165741183  1.1120553435224074  7.6509987808350317
  7.5713934767787494  3.3113407729804765  5.5027457157165385
  5.4551089643234674  5.4365687754363208  1.0740566728104892
  5.4461491570942631  7.6096878521718283  3.2453585096972302
  7.5841852060320551  5.4428572966974498  3.2245876828534130
  7.5994748498563576  7.6248797327190054  1.1459371416423891
  5.5064808670244831  5.4736605108539482  5.4648830193468561
  5.4394609065170449  7.6743589462337978  7.7030303291914128
  7.6438796012678107  5.4650916387725266  7.6329492267341106
  7.6047266558868492  7.7044049990122003  5.4654912831029110
 -0.0579739783806428  0.0483247117082195 -0.0553712600817731
 -0.0049646566335843  2.1660922446981510  2.1707660928531611
  2.1580221576644556 -0.0155629397957122  2.1305064353669825
  2.1702936485852402  2.1487429451338480  0.0289891678529978
  0.0530167142476370  0.1037864351759762  4.3957531535857743
 -0.0069852257874602  2.1556463656663993  6.5105111266266071
  2.1790414082879490  0.0262585321561937  6.5910789638174734
  2.1994252525442533  2.1976377945002534  4.3634885224285824
 -0.0342091751415355  4.3583491357989947 -0.0002285615462702
 -0.0285812871839663  6.5734589774365668  2.1040529336815132
  2.1924238808819938  4.3498342882847369  2.2561687031932118
  2.1530903608958720  6.6016990864686314 -0.0608148924455496
 -0.0312364463025132  4.3335719618893318  4.3956899141762236
 -0.0319955832491099  6.6150218456616301  6.5229008792554160
  2.1989763397207311  4.3482059051576449  6.5630574270879043
  2.2327713147365276  6.5617457633045797  4.4292700453391021
  4.3766240146031583 -0.0375778137992671 -0.0246173395962792
  4.4237186888146036  2.1625198457032644  2.1005319703387353
  6.6013817311633298  0.0491390179168240  2.3005884262294627
  6.5745010521019900  2.1213555665891226  0.0200282131026959
  4.3401004392952354  0.0508855136976883  4.3332061492400822
  4.3545369177061142  2.2186939741724649  6.5463588782724109
  6.5224245144901669 -0.0244935272003562  6.5263757854677680
  6.5495289282025997  2.1626117820716706  4.3414675963228202
  4.4042769121552094  4.3766534936920038 -0.0013179462798170
  4.3493030697534900  6.5149265416200093  2.2420162898710689
  6.5636363301295555  4.3805002463230256  2.1980746959893405
  6.5358205886927081  6.5411581452326395  0.0736398316560939
  4.3938853473898432  4.3602748815367365  4.3928499717489720
  4.3702882662582212  6.5729808821924207  6.5858107124738474
  6.4979774990834871  4.2949667982051061  6.5301253026007879
  6.5664514216903926  6.4538122756352614  4.3895210173574108
