 C Si                                   
   1.00000000000000     
     8.7433155800000009    0.0000000000000000    0.0000000000000000
     0.0000000000000000    8.7433155800000009    0.0000000000000000
     0.0000000000000000    0.0000000000000000    8.7433155800000009
   C    Si
    32    32
Direct
  0.1314384480223438  0.1260917013522587  0.1320339481477149
  0.1202375450591973  0.3707680110478151  0.3795668585864931
  0.3757181795578788  0.1155640492082455  0.3837704647613052
  0.3843181449176356  0.3728487546980475  0.1341625797055244
  0.1197363404773455  0.1328385713103373  0.6264185695219098
  0.1220785839912679  0.3793226394606464  0.8824838311586660
  0.3780506576290747  0.1207591241459696  0.8752749270183244
  0.3709579112989303  0.3777082047475133  0.6298738185271944
  0.1288454052486756  0.6289873522922207  0.1302727160303405
  0.1271473831315078  0.8683957404014393  0.3776208550976676
  0.3759713859703737  0.6108555113037610  0.3690420518689734
  0.3771929882689022  0.8763489706053704  0.1269706356834845
  0.1236040393029540  0.6267239550693517  0.6256834718397783
  0.1264757473934992  0.8750567239620821  0.8731626685202372
  0.3800497715035860  0.6176587030925944  0.8796321121173136
  0.3702465385612896  0.8754518052774216  0.6239137774531756
  0.6270366708512967  0.1279474317971960  0.1251947326564533
  0.6232173117963029  0.3807374237460976  0.3753474904199265
  0.8724278353848050  0.1212843665215857  0.3815416457272818
  0.8775133011799383  0.3756218987470845  0.1253547601496123
  0.6248682408974204  0.1241849086755948  0.6260554722819052
  0.6184137144220898  0.3747205634808353  0.8738166932700722
  0.8716460836807443  0.1244690492684128  0.8699257130554585
  0.8669708291008007  0.3732251549280790  0.6216479713117238
  0.6253672633527216  0.6139989872160143  0.1232188045436544
  0.6277220356565678  0.8759357240439627  0.3743267985234979
  0.8763818966231085  0.6337253085110106  0.3689998812592279
  0.8747988578058994  0.8789176928333262  0.1210032838200803
  0.6263860723635801  0.6280171354436348  0.6247292848093693
  0.6313909015771486  0.8702307765834618  0.8811345946413667
  0.8788700600788246  0.6243535508661964  0.8744726894090249
  0.8685446323942472  0.8774284552279568  0.6274242754702826
  0.0012370846373742  0.0076033926661481  0.0062237915172076
  0.0131166220215917  0.2478287761541296  0.2494221351137895
  0.2514918998312297  0.0011103112632469  0.2547691668916983
  0.2512143417538226  0.2454834869136988  0.0020095529752950
  0.0061742575558483  0.9991167601404882  0.5079956020347680
  0.0052382167632388  0.2475226476643257  0.7472313625607896
  0.2525592674801374  0.0034253171962177  0.7512994133947544
  0.2464241120574968  0.2539508939747819  0.4990016088592668
  0.9964087751289910  0.5045510634053016  0.0013062367068741
  0.9974566258414654  0.7443245983788600  0.2432746136363164
  0.2432571924547062  0.5018089769114908  0.2580071813301359
  0.2475325075380752  0.7469579097658894  0.0007381268802362
  0.0078793016655183  0.5061336511225889  0.5002230213470398
  0.0020621350784253  0.7427629768348112  0.7469174065941218
  0.2494277710890387  0.4915872857124270  0.7490983211583853
  0.2530315117306046  0.7423545799643918  0.4969850226439263
  0.5013623493467776  0.9966144520594185  0.9913019420680200
  0.4988229528251082  0.2490646267013403  0.2481137278750651
  0.7493498651645041  0.0039224491853531  0.2473878795150597
  0.7576457630688651  0.2415966097695730  0.0060944830436895
  0.5064796459551246  0.0041471534298410  0.5027286043804509
  0.4998618737200147  0.2516513207490974  0.7413395565928553
  0.7516544365400861  0.0048361520806068  0.7471705709175538
  0.7530967521411185  0.2543769301055647  0.4997615099997219
  0.4924529169047602  0.5073662012984741  0.9977035066439868
  0.5063053605732080  0.7535752813038741  0.2429055753132658
  0.7504251793267969  0.4967370498378543  0.2517546096057899
  0.7584417103450463  0.7438564203318023  0.0017516983736812
  0.5018361197236487  0.5014154033367149  0.4950762300124012
  0.5051746777179247  0.7438376764955308  0.7483809378111133
  0.7449796936850603  0.5007271219534815  0.7546448287069509
  0.7583871920712255  0.7610808960411148  0.5034995387415435
 
  0.00000000E+00  0.00000000E+00  0.00000000E+00
  0.00000000E+00  0.00000000E+00  0.00000000E+00
  0.00000000E+00  0.00000000E+00  0.00000000E+00
  0.00000000E+00  0.00000000E+00  0.00000000E+00
  0.00000000E+00  0.00000000E+00  0.00000000E+00
  0.00000000E+00  0.00000000E+00  0.00000000E+00
  0.00000000E+00  0.00000000E+00  0.00000000E+00
  0.00000000E+00  0.00000000E+00  0.00000000E+00
  0.00000000E+00  0.00000000E+00  0.00000000E+00
  0.00000000E+00  0.00000000E+00  0.00000000E+00
  0.00000000E+00  0.00000000E+00  0.00000000E+00
  0.00000000E+00  0.00000000E+00  0.00000000E+00
  0.00000000E+00  0.00000000E+00  0.00000000E+00
  0.00000000E+00  0.00000000E+00  0.00000000E+00
  0.00000000E+00  0.00000000E+00  0.00000000E+00
  0.00000000E+00  0.00000000E+00  0.00000000E+00
  0.00000000E+00  0.00000000E+00  0.00000000E+00
  0.00000000E+00  0.00000000E+00  0.00000000E+00
  0.00000000E+00  0.00000000E+00  0.00000000E+00
  0.00000000E+00  0.00000000E+00  0.00000000E+00
  0.00000000E+00  0.00000000E+00  0.00000000E+00
  0.00000000E+00  0.00000000E+00  0.00000000E+00
  0.00000000E+00  0.00000000E+00  0.00000000E+00
  0.00000000E+00  0.00000000E+00  0.00000000E+00
  0.00000000E+00  0.00000000E+00  0.00000000E+00
  0.00000000E+00  0.00000000E+00  0.00000000E+00
  0.00000000E+00  0.00000000E+00  0.00000000E+00
  0.00000000E+00  0.00000000E+00  0.00000000E+00
  0.00000000E+00  0.00000000E+00  0.00000000E+00
  0.00000000E+00  0.00000000E+00  0.00000000E+00
  0.00000000E+00  0.00000000E+00  0.00000000E+00
  0.00000000E+00  0.00000000E+00  0.00000000E+00
  0.00000000E+00  0.00000000E+00  0.00000000E+00
  0.00000000E+00  0.00000000E+00  0.00000000E+00
  0.00000000E+00  0.00000000E+00  0.00000000E+00
  0.00000000E+00  0.00000000E+00  0.00000000E+00
  0.00000000E+00  0.00000000E+00  0.00000000E+00
  0.00000000E+00  0.00000000E+00  0.00000000E+00
  0.00000000E+00  0.00000000E+00  0.00000000E+00
  0.00000000E+00  0.00000000E+00  0.00000000E+00
  0.00000000E+00  0.00000000E+00  0.00000000E+00
  0.00000000E+00  0.00000000E+00  0.00000000E+00
  0.00000000E+00  0.00000000E+00  0.00000000E+00
  0.00000000E+00  0.00000000E+00  0.00000000E+00
  0.00000000E+00  0.00000000E+00  0.00000000E+00
  0.00000000E+00  0.00000000E+00  0.00000000E+00
  0.00000000E+00  0.00000000E+00  0.00000000E+00
  0.00000000E+00  0.00000000E+00  0.00000000E+00
  0.00000000E+00  0.00000000E+00  0.00000000E+00
  0.00000000E+00  0.00000000E+00  0.00000000E+00
  0.00000000E+00  0.00000000E+00  0.00000000E+00
  0.00000000E+00  0.00000000E+00  0.00000000E+00
  0.00000000E+00  0.00000000E+00  0.00000000E+00
  0.00000000E+00  0.00000000E+00  0.00000000E+00
  0.00000000E+00  0.00000000E+00  0.00000000E+00
  0.00000000E+00  0.00000000E+00  0.00000000E+00
  0.00000000E+00  0.00000000E+00  0.00000000E+00
  0.00000000E+00  0.00000000E+00  0.00000000E+00
  0.00000000E+00  0.00000000E+00  0.00000000E+00
  0.00000000E+00  0.00000000E+00  0.00000000E+00
  0.00000000E+00  0.00000000E+00  0.00000000E+00
  0.00000000E+00  0.00000000E+00  0.00000000E+00
  0.00000000E+00  0.00000000E+00  0.00000000E+00
  0.00000000E+00  0.00000000E+00  0.00000000E+00
