 C Si 
 1.0000000000000000
     8.7433155800000009    0.0000000000000000    0.0000000000000000
     0.0000000000000000    8.7433155800000009    0.0000000000000000
     0.0000000000000000    0.0000000000000000    8.7433155800000009
 C   Si 
  32  32
Cartesian
  1.1492078304047739  1.1024595369418984  1.1544144759288180
  1.0512748010170445  3.2417417275599725  3.3186728283309326
  3.2850226130176550  1.0104129519303631  3.3554262836913678
  3.3602148241350536  3.2599343259350255  1.1730257733922891
  1.0468926111877490  1.1614495501626261  5.4769752385022441
  1.0673715853951835  3.3165375434430224  7.7158346300676488
  3.3054162048775559  1.0558351315726222  7.6528049061826602
  3.2434020853841949  3.3024220312627435  5.5071855709629016
  1.1265360391221326  5.4994349169195287  1.1390154677169801
  1.1116896958899400  7.5926580066575280  3.3016583057083850
  3.2872364765889470  5.3409025091110554  3.2266511217811948
  3.2979173309982452  7.6621956082108795  1.1101443371739155
  1.0807091225884464  5.4796453207170615  5.4705480474852362
  1.1058173726777007  7.6508970880014449  7.6343367635473873
  3.3228950883627273  5.4003849618720974  7.6909011505436053
  3.2371823290439741  7.6543514086212365  5.4550750509829884
  5.4823794934854471  1.1186847738533812  1.0946170565690920
  5.4489856319543559  3.3289074489283235  3.2817815609024299
  7.6279118855456618  1.0604274914185887  3.3359390155061543
  7.6723757178637824  3.2841807995045698  1.0960162274432992
  5.4634202260855913  1.0857878468242326  5.4738005647466528
  5.4069862641922981  3.2763001408283663  7.6400551083323087
  7.6210767836918363  1.0882721776963211  7.6060350404004229
  7.5801995574825538  3.2632253119306149  5.4352643928451903
  5.4677833368938149  5.3683869110300115  1.0773408935155235
  5.4883718542653748  7.6585824631121477  3.2728573295420262
  7.6624834907747665  5.5408603633445974  3.2262824108319452
  7.6486424828205113  7.6846547572872854  1.0579698966552908
  5.4766911055915246  5.4909520048313061  5.4622052891560049
  5.5204499068297483  7.6087023070976576  7.7040378294048271
  7.6842382890827245  5.4589201287167182  7.6457906895944436
  7.5939598163379651  7.6716338829299149  5.4857684429895341
  0.0108162213837489  0.0664788615587920  0.0544165733390954
  0.1146827656783423  2.1668451997207168  2.1807764399372402
  2.1988730460381616  0.0097078017665991  2.2275272261878021
  2.1964462681756669  2.1463395957652516  0.0175701558377292
  0.0539834822829515 -0.0077224448245500  4.4415658618420641
  0.0457993822374539  2.1641686217263549  6.5332796141423692
  2.2082053782324995  0.0299486292081054  6.5688478663792242
  2.1545637782399569  2.2203728078446372  4.3629285411842735
 -0.0313992123659999  4.4114491735771360  0.0114208397503497
 -0.0222375229060837  6.5078648575831073  2.1270267196248884
  2.1268744007362734  4.3874742460141158  2.2558382082756752
  2.1642548297140962  6.5308887300603100  0.0064536762520005
  0.0688912210116552  4.4252862374224140  4.3736077360182497
  0.0180298977592638  6.4942111076070113  6.5305345980475797
  2.1808257170474512  4.2981027740993616  6.5496030223359236
  2.2123343587451219  6.4906403648870246  4.3452968915092738
  4.3835692402690745 -0.0296009140557526 -0.0760498654324365
  4.3613664950973590  2.1776506310646901  2.1693366225419273
  6.5518023509637349  0.0342952110740492  2.1629903012671634
  6.6243360043609751  2.1123554022735074  0.0532859885479488
  4.4283113794323299  0.0362598711957897  4.3955148391912786
  4.3704501083442135  2.2002669134331576  6.4817656952285754
  6.5719519457770552  0.0422840038336347  6.5327480936209632
  6.5845625662428580  2.2240977761845326  4.3695725966648888
  4.3056712607898495  4.4360628125783821 -0.0200789661389808
  4.4267875473372706  6.5887464977270733  2.1238001011053194
  6.5612041620322543  4.3431287870105511  2.2011700005031027
  6.6312952225816666  6.5037714291700510  0.0153156516820786
  4.3877115641865378  4.3840331080459123  4.3286077151550835
  4.4169016303125996  6.5036075458943463  6.5433307133389329
  6.5135925625802322  4.3780152467044351  6.5980978881998986
  6.6308185521087886  6.6543704559966619  4.4022553616017497
