 C Si                                   
   1.00000000000000     
     8.7433155800000009    0.0000000000000000    0.0000000000000000
     0.0000000000000000    8.7433155800000009    0.0000000000000000
     0.0000000000000000    0.0000000000000000    8.7433155800000009
   C    Si
    32    32
Direct
  0.1260451529533597  0.1214074420733340  0.1260733758801891
  0.1258717090465993  0.3742348542934621  0.3742382711677692
  0.3771848846037997  0.1221065543910527  0.3781845468899121
  0.3786784811251280  0.3744524887525600  0.1279277944280253
  0.1248105906168391  0.1239067498703648  0.6258741564839170
  0.1224669503361255  0.3762334512146026  0.8777689513786555
  0.3740508548244250  0.1252469412515822  0.8725783156455122
  0.3737211533020215  0.3736923063569293  0.6220268616459492
  0.1238541786619010  0.6205962297688643  0.1236509325962629
  0.1230984260985437  0.8784352932790327  0.3774640499148703
  0.3759578691130088  0.6230205694198574  0.3723939967796426
  0.3741762700830833  0.8741319613766905  0.1233668709031406
  0.1244492470218432  0.6207388008143297  0.6234110756479865
  0.1251966132054463  0.8771422524104082  0.8714850372021417
  0.3750928436835821  0.6243443001501063  0.8735273086799822
  0.3809734302784804  0.8745608430105705  0.6242275883764066
  0.6220855831284453  0.1255456729626871  0.1239721239480147
  0.6284395961655775  0.3793630987513339  0.3739334022470899
  0.8800126453513712  0.1222484931850829  0.3743077388210736
  0.8741651086785325  0.3717789423379401  0.1258465675995311
  0.6234883080575386  0.1232454971925065  0.6280689895236264
  0.6291039220168315  0.3751487673018872  0.8767610760730307
  0.8742398282194799  0.1275955095742773  0.8747202766378308
  0.8765742811297272  0.3704499174393305  0.6262630107398692
  0.6250246124658219  0.6234475486727433  0.1231502686464552
  0.6282907689736490  0.8766878341527686  0.3792498705757978
  0.8744167865262753  0.6227098174642336  0.3800309348239068
  0.8784087609695561  0.8710118805016975  0.1213688761470948
  0.6302544491163360  0.6265984302898744  0.6228759875818639
  0.6271536940458802  0.8735289313207559  0.8757499686697301
  0.8722291623343921  0.6231207597403383  0.8749156792437276
  0.8744755550251426  0.8718444039148849  0.6247211896175742
  0.0015875119881485  0.0012778598389858  0.9999996076182001
  0.0010377189528938  0.2504344657552267  0.2490872739547498
  0.2487041447182463  0.0055207124350716  0.2490864486148752
  0.2507845017275301  0.2499934354240310  0.9978995967878248
  0.9971512826967484  0.9988098321120731  0.4987475474475573
  0.9986069422696460  0.2477800433080617  0.7469747981782930
  0.2567380883940444  0.9991955455863391  0.7491644446902441
  0.2489774482515941  0.2462276322796413  0.4997834118584308
  0.0017555507143499  0.5031814057927448  0.0013377915407276
  0.9970152415166567  0.7509848740657787  0.2518333981097456
  0.2548033188291186  0.5019582028555334  0.2446722787553384
  0.2503672230961200  0.7503743137225456  0.0004158620697012
  0.9966554134426531  0.4970455577361150  0.5016074226982781
  0.0000063763594937  0.7529850359638885  0.7504015899526877
  0.2504536716733980  0.4988050707981984  0.7508374921594410
  0.2477262072013460  0.7505028450104732  0.5035505670810920
  0.4987812028071801  0.9981270713531316  0.0026403906597707
  0.5022190313297656  0.2471637015333670  0.2515126674268515
  0.7502623205926753  0.0009398759113992  0.2471670426329595
  0.7515569232349293  0.2509277186043306  0.0002738225387233
  0.4985540531602410  0.9991966648626374  0.5020926910029715
  0.5008796131219455  0.2475582386596997  0.7523453833464799
  0.7491732313632653  0.0002429614408967  0.7468748229034148
  0.7505999583729093  0.2482430371858939  0.5006767770925578
  0.5001622113904389  0.4978441301937764  0.0019297313394446
  0.4992103114273547  0.7482209651521572  0.2503066246261767
  0.7507389924253260  0.4989916074322167  0.2498217911443348
  0.7525417571145425  0.7477681292735383  0.0012449089391424
  0.4987947341804286  0.4988463517235928  0.5007209913007742
  0.4996541883282219  0.7501668556152623  0.7505848768516969
  0.7496835440783229  0.4992964536931908  0.7475563091036719
  0.7540646293166802  0.7515736652594143  0.4948881900440867
 
  0.00000000E+00  0.00000000E+00  0.00000000E+00
  0.00000000E+00  0.00000000E+00  0.00000000E+00
  0.00000000E+00  0.00000000E+00  0.00000000E+00
  0.00000000E+00  0.00000000E+00  0.00000000E+00
  0.00000000E+00  0.00000000E+00  0.00000000E+00
  0.00000000E+00  0.00000000E+00  0.00000000E+00
  0.00000000E+00  0.00000000E+00  0.00000000E+00
  0.00000000E+00  0.00000000E+00  0.00000000E+00
  0.00000000E+00  0.00000000E+00  0.00000000E+00
  0.00000000E+00  0.00000000E+00  0.00000000E+00
  0.00000000E+00  0.00000000E+00  0.00000000E+00
  0.00000000E+00  0.00000000E+00  0.00000000E+00
  0.00000000E+00  0.00000000E+00  0.00000000E+00
  0.00000000E+00  0.00000000E+00  0.00000000E+00
  0.00000000E+00  0.00000000E+00  0.00000000E+00
  0.00000000E+00  0.00000000E+00  0.00000000E+00
  0.00000000E+00  0.00000000E+00  0.00000000E+00
  0.00000000E+00  0.00000000E+00  0.00000000E+00
  0.00000000E+00  0.00000000E+00  0.00000000E+00
  0.00000000E+00  0.00000000E+00  0.00000000E+00
  0.00000000E+00  0.00000000E+00  0.00000000E+00
  0.00000000E+00  0.00000000E+00  0.00000000E+00
  0.00000000E+00  0.00000000E+00  0.00000000E+00
  0.00000000E+00  0.00000000E+00  0.00000000E+00
  0.00000000E+00  0.00000000E+00  0.00000000E+00
  0.00000000E+00  0.00000000E+00  0.00000000E+00
  0.00000000E+00  0.00000000E+00  0.00000000E+00
  0.00000000E+00  0.00000000E+00  0.00000000E+00
  0.00000000E+00  0.00000000E+00  0.00000000E+00
  0.00000000E+00  0.00000000E+00  0.00000000E+00
  0.00000000E+00  0.00000000E+00  0.00000000E+00
  0.00000000E+00  0.00000000E+00  0.00000000E+00
  0.00000000E+00  0.00000000E+00  0.00000000E+00
  0.00000000E+00  0.00000000E+00  0.00000000E+00
  0.00000000E+00  0.00000000E+00  0.00000000E+00
  0.00000000E+00  0.00000000E+00  0.00000000E+00
  0.00000000E+00  0.00000000E+00  0.00000000E+00
  0.00000000E+00  0.00000000E+00  0.00000000E+00
  0.00000000E+00  0.00000000E+00  0.00000000E+00
  0.00000000E+00  0.00000000E+00  0.00000000E+00
  0.00000000E+00  0.00000000E+00  0.00000000E+00
  0.00000000E+00  0.00000000E+00  0.00000000E+00
  0.00000000E+00  0.00000000E+00  0.00000000E+00
  0.00000000E+00  0.00000000E+00  0.00000000E+00
  0.00000000E+00  0.00000000E+00  0.00000000E+00
  0.00000000E+00  0.00000000E+00  0.00000000E+00
  0.00000000E+00  0.00000000E+00  0.00000000E+00
  0.00000000E+00  0.00000000E+00  0.00000000E+00
  0.00000000E+00  0.00000000E+00  0.00000000E+00
  0.00000000E+00  0.00000000E+00  0.00000000E+00
  0.00000000E+00  0.00000000E+00  0.00000000E+00
  0.00000000E+00  0.00000000E+00  0.00000000E+00
  0.00000000E+00  0.00000000E+00  0.00000000E+00
  0.00000000E+00  0.00000000E+00  0.00000000E+00
  0.00000000E+00  0.00000000E+00  0.00000000E+00
  0.00000000E+00  0.00000000E+00  0.00000000E+00
  0.00000000E+00  0.00000000E+00  0.00000000E+00
  0.00000000E+00  0.00000000E+00  0.00000000E+00
  0.00000000E+00  0.00000000E+00  0.00000000E+00
  0.00000000E+00  0.00000000E+00  0.00000000E+00
  0.00000000E+00  0.00000000E+00  0.00000000E+00
  0.00000000E+00  0.00000000E+00  0.00000000E+00
  0.00000000E+00  0.00000000E+00  0.00000000E+00
  0.00000000E+00  0.00000000E+00  0.00000000E+00
