 C Si 
 1.0000000000000000
     8.7433155800000009    0.0000000000000000    0.0000000000000000
     0.0000000000000000    8.7433155800000009    0.0000000000000000
     0.0000000000000000    0.0000000000000000    8.7433155800000009
 C   Si 
  32  32
Cartesian
  1.1020525496005988  1.0615035798077426  1.1022993115564421
  1.1005360747883579  3.2720534321230583  3.2720833069334487
  3.2978464780968797  1.0676161394274073  3.3065868409377988
  3.3109054638320807  3.2739562788800272  1.1185130781376096
  1.0912583814891905  1.0833558166086941  5.4722152635052090
  1.0707671949089597  3.2895277957217819  7.6746109482292733
  3.2704446666987317  1.0950735327923118  7.6292275819535478
  3.2675619822411166  3.2673097642966540  5.4385771506075624
  1.0828961699426851  5.4260686846273876  1.0811191254504267
  1.0762883867808697  7.6804369857484600  3.3002873085106135
  3.2871182944393942  5.4472654512691197  3.2559582339419340
  3.2715412118837039  7.6428115968807822  1.0786354844232970
  1.0880990404053505  5.4273152282704293  5.4506797704576213
  1.0946334988024220  7.6691315213762401  7.6196687035063473
  3.2795551041251381  5.4588392467866473  7.6375249275371297
  3.3309709285199025  7.6465614443522769  5.4578187989172342
  5.4390905710603166  1.0976854384162622  1.0839274028003609
  5.4946457122434040  3.3168912917896241  3.2694177417494004
  7.6942282726976687  1.0688571550966792  3.2726906845488450
  7.6431014142013911  3.2505806188592588  1.1003162551824786
  5.4513550377873061  1.0775742757680971  5.4914053814167891
  5.5004541228088755  3.2800440619683782  7.6657987763669162
  7.6437547107279205  1.1156078067987940  7.6479554228694777
  7.6641655692288717  3.2389605347570174  5.4756151389795837
  5.4647874320558669  5.4509986656232279  1.0767416625377566
  5.4933444691374689  7.6651583991443575  3.3159013021183266
  7.6453019130487156  5.4445484488539746  3.3227303933278360
  7.6802050053936313  7.6155317451555860  1.0611663857439635
  5.5105135443231834  5.4785478179570095  5.4460013266324117
  5.4834026642059088  7.6375391147975016  7.6569583452545826
  7.6261748243686487  5.4481414468591307  7.6496638895179485
  7.6458157445804638  7.6228107600847972  5.4621345103394638
  0.0138801182994113  0.0111727318392486 -0.0000034307179316
  0.0090731042885228  2.1896275662066200  2.1778486431483230
  2.1744988233255951  0.0482693310462773  2.1778414269412831
  2.1926880411768264  2.1857714988406527 -0.0183644881292976
 -0.0249072343805537 -0.0104060134373465  4.3607072020850000
 -0.0121799433576452  2.1664191130684811  6.5310363907796365
  2.2447421282350764 -0.0070335988083555  6.5501811612422687
  2.1768884023667785  2.1528458935370738  4.3697640915273910
  0.0153493339122703  4.3994738248339793  0.0116967336208512
 -0.0260966853499471  6.5660977497636335  2.2018588732572915
  2.2278258273543656  4.3887789755356126  2.1392469468356374
  2.1890396424176211  6.5607594280021466  0.0036360133131230
 -0.0292427757554798  4.3458261689239537  4.3857119939215155
  0.0000557505232996  6.5835857964499338  6.5609979126901319
  2.1897954896102028  4.3612101468928710  6.5648091432457578
  2.1659484069978618  6.5618832176143762  4.4027015184779765
  4.3610014615151531 -0.0163756062184122  0.0230857687928906
  4.3910594811980479  2.1610302424271604  2.1990546236805533
  6.5597802367248947  0.0082176316994216  2.1610594547152795
  6.5710993561768110  2.1939402315270886  0.0023941168689793
  4.3590154204680784 -0.0070238126224362  4.3899548478503885
  4.3793485251134490  2.1644798050307137  6.5779931117543686
  6.5502579858973915  0.0021242885515108  6.5301622754011648
  6.5627323103892090  2.1704672146539346  4.3775750656975276
  4.3730760553772532  4.3528083399348132  0.0168722500853862
  4.3647532935994446  6.5419320218975079  2.1885098108712531
  6.5639479289858356  4.3628410955513308  2.1842707587357690
  6.5797100695801314  6.5379727349047574  0.0108846317232677
  4.3611197705816824  4.3615710790510729  4.3779616444731078
  4.3686342494224188  6.5589455563005101  6.5626004478898210
  6.5547198110096438  4.3655064626144311  6.5361207243134611
  6.5930250218314397  6.5712457369803170  4.3269636223704868
