 C Si                                   
   1.00000000000000     
     8.7433155800000009    0.0000000000000000    0.0000000000000000
     0.0000000000000000    8.7433155800000009    0.0000000000000000
     0.0000000000000000    0.0000000000000000    8.7433155800000009
   C    Si
    32    32
Direct
  0.1302283886985833  0.1295910917968968  0.1289472406689569
  0.1265978968623642  0.3730599382776632  0.3758687955434041
  0.3751645431708894  0.1230542368542231  0.3871825930956945
  0.3621336713923071  0.3744551734481334  0.1188588433235722
  0.1280417313956832  0.1246871609756042  0.6242124349842797
  0.1147640800304330  0.3772857072119677  0.8773405813527617
  0.3731129739730576  0.1262872838663540  0.8839849540796934
  0.3706892210148567  0.3747890092536181  0.6338895803708482
  0.1283654868765112  0.6301527434806644  0.1249091136769209
  0.1296929685089410  0.8875985694818169  0.3754663571174817
  0.3693651600080088  0.6218529596726441  0.3756543402821322
  0.3771999290872188  0.8801202410266029  0.1193281682208323
  0.1244771040844768  0.6296125920668842  0.6253355537597116
  0.1293467565440807  0.8664724443755816  0.8758009022625473
  0.3860739743964174  0.6389570731202454  0.8724281191008885
  0.3685116322903852  0.8774993609386073  0.6215942233714884
  0.6265295240588316  0.1200274761120781  0.1232495408091197
  0.6227517410523333  0.3700775497534465  0.3815177655487005
  0.8698725371537179  0.1246116502795616  0.3813856811455878
  0.8812304785324372  0.3768767101379495  0.1235551317539176
  0.6268838313730996  0.1225955323684786  0.6295135453944880
  0.6249236262586564  0.3714658985545825  0.8730842604588531
  0.8735141674880396  0.1243812304858665  0.8739098098943288
  0.8862839310726756  0.3705291077804134  0.6249106813318051
  0.6236595509157041  0.6205423532114125  0.1199802803163692
  0.6224977981305813  0.8704324023609686  0.3783657836754486
  0.8751358121260111  0.6221896861590608  0.3804226065269916
  0.8656008005127021  0.8780091072722271  0.1191768576429766
  0.6215447452010991  0.6266609650983597  0.6209783292649931
  0.6316924123828684  0.8778398582435614  0.8654753495084861
  0.8755637017645483  0.6177273506630030  0.8781464274794004
  0.8791951535448774  0.8791005500596683  0.6205988714541064
  0.0098253208868258  0.9985558684510778  0.0043066428169141
  0.9958436066850922  0.2479422812905270  0.2467271026170650
  0.2528369272254452  0.9964152186703288  0.2461276367642427
  0.2543622129595988  0.2518149216119596  0.0044770094240150
  0.0011956760939782  0.9988575997892397  0.4942170304012734
  0.0041257167599582  0.2487495527052630  0.7528625011401644
  0.2457510286546238  0.0061599961792140  0.7490369361371947
  0.2520477089366437  0.2451328855208033  0.5144526388395363
  0.0017227389385184  0.4994480385886746  0.0073272644741493
  0.9934904533244975  0.7455918050752430  0.2468345617468160
  0.2604156912126783  0.4994070761021305  0.2524983220646035
  0.2555276652209386  0.7547958048895680  0.0041008095816437
  0.9974851530344964  0.5068858696655525  0.4944836706319791
  0.0040834412101134  0.7490448251835744  0.7533163083326713
  0.2504646344922108  0.5043045791371839  0.7528166315699991
  0.2543637787493509  0.7556787703669272  0.4962225736007042
  0.4953190718259748  0.9993623967004197  0.0081237198928434
  0.5074850807061324  0.2488613383974609  0.2483026233318242
  0.7451452379268844  0.9928732554890303  0.2452404185069526
  0.7499488215930583  0.2416814473394595  0.0002824362673550
  0.4971415589924035  0.9907199612235189  0.5017846358881073
  0.4969935309002906  0.2474284403887665  0.7487065415483798
  0.7519870183895776  0.9993261068029895  0.7417520485451021
  0.7545029416611584  0.2506081656529560  0.4955016442671365
  0.4977672519279608  0.5064214929481281  0.0017156019227826
  0.4925913005090408  0.7558484744055534  0.2526374563690865
  0.7492666982048277  0.5037809395236650  0.2541627895490421
  0.7508856214703741  0.7535138596568061  0.9990213703184097
  0.5016601785272243  0.4955233750698369  0.5004944318222044
  0.4938554547485481  0.7559318789481893  0.7477340597495257
  0.7440685203766506  0.5034575524458305  0.7540005896741420
  0.7490567584645049  0.7508295805524696  0.5003063415775841
 
  0.00000000E+00  0.00000000E+00  0.00000000E+00
  0.00000000E+00  0.00000000E+00  0.00000000E+00
  0.00000000E+00  0.00000000E+00  0.00000000E+00
  0.00000000E+00  0.00000000E+00  0.00000000E+00
  0.00000000E+00  0.00000000E+00  0.00000000E+00
  0.00000000E+00  0.00000000E+00  0.00000000E+00
  0.00000000E+00  0.00000000E+00  0.00000000E+00
  0.00000000E+00  0.00000000E+00  0.00000000E+00
  0.00000000E+00  0.00000000E+00  0.00000000E+00
  0.00000000E+00  0.00000000E+00  0.00000000E+00
  0.00000000E+00  0.00000000E+00  0.00000000E+00
  0.00000000E+00  0.00000000E+00  0.00000000E+00
  0.00000000E+00  0.00000000E+00  0.00000000E+00
  0.00000000E+00  0.00000000E+00  0.00000000E+00
  0.00000000E+00  0.00000000E+00  0.00000000E+00
  0.00000000E+00  0.00000000E+00  0.00000000E+00
  0.00000000E+00  0.00000000E+00  0.00000000E+00
  0.00000000E+00  0.00000000E+00  0.00000000E+00
  0.00000000E+00  0.00000000E+00  0.00000000E+00
  0.00000000E+00  0.00000000E+00  0.00000000E+00
  0.00000000E+00  0.00000000E+00  0.00000000E+00
  0.00000000E+00  0.00000000E+00  0.00000000E+00
  0.00000000E+00  0.00000000E+00  0.00000000E+00
  0.00000000E+00  0.00000000E+00  0.00000000E+00
  0.00000000E+00  0.00000000E+00  0.00000000E+00
  0.00000000E+00  0.00000000E+00  0.00000000E+00
  0.00000000E+00  0.00000000E+00  0.00000000E+00
  0.00000000E+00  0.00000000E+00  0.00000000E+00
  0.00000000E+00  0.00000000E+00  0.00000000E+00
  0.00000000E+00  0.00000000E+00  0.00000000E+00
  0.00000000E+00  0.00000000E+00  0.00000000E+00
  0.00000000E+00  0.00000000E+00  0.00000000E+00
  0.00000000E+00  0.00000000E+00  0.00000000E+00
  0.00000000E+00  0.00000000E+00  0.00000000E+00
  0.00000000E+00  0.00000000E+00  0.00000000E+00
  0.00000000E+00  0.00000000E+00  0.00000000E+00
  0.00000000E+00  0.00000000E+00  0.00000000E+00
  0.00000000E+00  0.00000000E+00  0.00000000E+00
  0.00000000E+00  0.00000000E+00  0.00000000E+00
  0.00000000E+00  0.00000000E+00  0.00000000E+00
  0.00000000E+00  0.00000000E+00  0.00000000E+00
  0.00000000E+00  0.00000000E+00  0.00000000E+00
  0.00000000E+00  0.00000000E+00  0.00000000E+00
  0.00000000E+00  0.00000000E+00  0.00000000E+00
  0.00000000E+00  0.00000000E+00  0.00000000E+00
  0.00000000E+00  0.00000000E+00  0.00000000E+00
  0.00000000E+00  0.00000000E+00  0.00000000E+00
  0.00000000E+00  0.00000000E+00  0.00000000E+00
  0.00000000E+00  0.00000000E+00  0.00000000E+00
  0.00000000E+00  0.00000000E+00  0.00000000E+00
  0.00000000E+00  0.00000000E+00  0.00000000E+00
  0.00000000E+00  0.00000000E+00  0.00000000E+00
  0.00000000E+00  0.00000000E+00  0.00000000E+00
  0.00000000E+00  0.00000000E+00  0.00000000E+00
  0.00000000E+00  0.00000000E+00  0.00000000E+00
  0.00000000E+00  0.00000000E+00  0.00000000E+00
  0.00000000E+00  0.00000000E+00  0.00000000E+00
  0.00000000E+00  0.00000000E+00  0.00000000E+00
  0.00000000E+00  0.00000000E+00  0.00000000E+00
  0.00000000E+00  0.00000000E+00  0.00000000E+00
  0.00000000E+00  0.00000000E+00  0.00000000E+00
  0.00000000E+00  0.00000000E+00  0.00000000E+00
  0.00000000E+00  0.00000000E+00  0.00000000E+00
  0.00000000E+00  0.00000000E+00  0.00000000E+00
