 C Si 
 1.0000000000000000
     8.7433155800000009    0.0000000000000000    0.0000000000000000
     0.0000000000000000    8.7433155800000009    0.0000000000000000
     0.0000000000000000    0.0000000000000000    8.7433155800000009
 C   Si 
  32  32
Cartesian
  1.1386278998666506  1.1330558119370036  1.1274264183389251
  1.1068853640319445  3.2617807706169142  3.2863394961105103
  3.2801819953696478  1.0759020262725383  3.3852595985183913
  3.1662489711269619  3.2739797520206846  1.0392203766517751
  1.1195092650020801  1.0901791971839569  5.4576863080277702
  1.0034185689544637  3.2987280019776901  7.6708655739078813
  3.2622444784387472  1.1041695765845712  7.7289594214905843
  3.2410528414372890  3.2768985838199258  5.5422966440561110
  1.1223399613416574  5.5096242998542353  1.0921197996954406
  1.1339465521806771  7.7605544013361039  3.2828208499511233
  3.2294761582072464  5.4370566707749299  3.2844644460833883
  3.2979780167631567  7.6951690156412544  1.0433238323380856
  1.0883426034950883  5.5049015855825703  5.4675060899152186
  1.1309195117143223  7.5758420225497085  7.6574036737301761
  3.3755665953727254  5.5866033323634134  7.6279143661648945
  3.2220134960157694  7.6722538339345601  5.4347944576419280
  5.4779453490335435  1.0494381019188250  1.0776096303842484
  5.4449150000150146  3.2357048065675444  3.3357302235687700
  7.6055701067102435  1.0895189833388312  3.3345753679491348
  7.7048761725235293  3.2951520114882920  1.0802815084529642
  5.4810431696944999  1.0718914281957279  5.5040355892686632
  5.4639044777774135  3.2478435782709671  7.6336512171226802
  7.6374100299488967  1.0875043503666548  7.6408692563639393
  7.7490601028513746  3.2396529208999993  5.4637912961967592
  5.4528522681370877  5.4255976248832356  1.0490254541828801
  5.4426946969108307  7.6104651848994909  3.3081714513484846
  7.6515885807773127  5.4400007767098515  3.3261549026316568
  7.5682209651831789  7.6767107069951415  1.0420008762052790
  5.4343618543839023  5.4790945795223047  5.4294095011050105
  5.5230861109549085  7.6752309093259008  7.5671241074635116
  7.6553297549204684  5.4009851692439810  7.6779113409020061
  7.6870806838494401  7.6862535357232566  5.4260917817151233
  0.0859058811882973 -0.0126264978712375  0.0376543372385930
 -0.0363406584268160  2.1678376109482258  2.1572129203200507
  2.2106330450095899 -0.0313428744506210  2.1519716011893819
  2.2239690995329622  2.2016973274063050  0.0391439062487776
  0.0104541734210961 -0.0099883655613568  4.3210954618088016
  0.0360724436259887  2.1748958396859348  6.5825144358165959
  2.1486787976369843  0.0538587905664933  6.5490663137237748
  2.2037326604490532  2.1432741771443822  4.4980217723378217
  0.0150624502014135  4.3668318171928169  0.0640645856356199
 -0.0569150208666400  6.5189444456346752  2.1581524694033787
  2.2768965702562931  4.3664736692459964  2.2076725132312860
  2.2341590164472773  6.5994179206096053  0.0358546723057751
 -0.0219881006548285  4.4318631215286493  4.3234267814921639
  0.0357028151524158  6.5491352901459052  6.5864822153131133
  2.1898913409947380  4.4092940838354808  6.5821133836890819
  2.2239827897268727  6.6071379664243999  4.3386305589107081
  4.3307309577671544 -0.0055747668630598  0.0710282467066294
  4.4371022127554989  2.1758732172701873  2.1709881951319789
  6.5150399681289173 -0.0623113763174394  2.1442143719775295
  6.5570392160372162  2.1130971639200293  0.0024694294167010
  4.3466655382037711 -0.0811383076173966  4.3872614247651276
  4.3453712818797312  2.1633449377862126  6.5461775695678677
  6.5748598138433536 -0.0058920608886846  6.4853722425413114
  6.5968573249818068  2.1911462792287302  4.3323272462364475
  4.3521361689955462  4.4278029293402561  0.0150000490205329
  4.3068811923131678  6.6086217423893006  2.2088890083634047
  6.5510751959894584  4.4047157374443211  2.2222254777204040
  6.5652299529998857  6.5882094688832868 -0.0085564681420795
  4.3861732547826460  4.3325172455022907  4.3759807634543124
  4.3179340917709617  6.6093509746263521  6.5376748543047034
  6.5056258867967474  4.4018882621683133  6.5924651030271102
  6.5492396265870303  6.5647399695692590  4.3743362310881029
