 C Si                                   
   1.00000000000000     
     8.7433155800000009    0.0000000000000000    0.0000000000000000
     0.0000000000000000    8.7433155800000009    0.0000000000000000
     0.0000000000000000    0.0000000000000000    8.7433155800000009
   C    Si
    32    32
Direct
  0.1249983511599666  0.1189318310585961  0.1271748980474143
  0.1190799900373918  0.3716280114589310  0.3717108655252659
  0.3755507870188595  0.1249400534646554  0.3764058036292326
  0.3725820734229615  0.3801638464782400  0.1293304695693962
  0.1294543003398871  0.1228296115212402  0.6212956813774611
  0.1286804904886978  0.3754231430450758  0.8782742627841600
  0.3735677986340846  0.1219485345170099  0.8728346455758000
  0.3762896556226281  0.3757196487007661  0.6230916920791429
  0.1209893216943883  0.6229221271021075  0.1327141199527020
  0.1216631150571885  0.8756901078457489  0.3714930358909427
  0.3731901523157148  0.6209314167293201  0.3745607282462231
  0.3733652993646217  0.8779393849029589  0.1278650370779317
  0.1302213343730330  0.6205414024317051  0.6238987891744259
  0.1251372780951456  0.8757576778339811  0.8740589364598108
  0.3748602416798548  0.6214034901898842  0.8790629843797291
  0.3755168845555019  0.8761803936184691  0.6265159273316669
  0.6244948911169175  0.1249980774817061  0.1244786427654176
  0.6285340354306754  0.3676649263575271  0.3725788585346947
  0.8793525052639879  0.1260399515124604  0.3692050920159673
  0.8748616955522408  0.3761748931429523  0.1223666329073367
  0.6265558224369840  0.1247511614827914  0.6239162239104843
  0.6172025649838560  0.3762692181928173  0.8737816875721549
  0.8767098968096221  0.1354501463505500  0.8697134756072344
  0.8711930921619597  0.3725551801899769  0.6187510918574048
  0.6274607279077884  0.6173718709798024  0.1248518905163607
  0.6249609396774360  0.8735203591601959  0.3718293291353589
  0.8755653755422941  0.6201476784651874  0.3738506059187898
  0.8742980378915135  0.8776434667111630  0.1202091512497745
  0.6257763309068025  0.6205963179324669  0.6262417945123389
  0.6249920928623638  0.8807668558836639  0.8780461844105574
  0.8725457011031850  0.6263648734706990  0.8741594679888891
  0.8724821390860811  0.8742628191787034  0.6270158738795715
  0.0092542355393164  0.9997690363900631  0.9989317555579760
  0.9993070337628893  0.2498244966760694  0.2468581602770783
  0.2479959638530431  0.9975647226445403  0.2478069931885827
  0.2540503668290555  0.2498701589956127  0.9966995340524178
  0.9970252456069133  0.0027130448754491  0.5017323963741234
  0.9994878944682668  0.2477729769205652  0.7545803021801376
  0.2529302529943180  0.0036375340392993  0.7484559826616390
  0.2461820123019649  0.2451235608005931  0.5002488490732944
  0.0001704105331655  0.5028842156556976  0.0034581210454192
  0.0033431486348476  0.7500465512340071  0.2552116011513377
  0.2454883418906064  0.4985244702371574  0.2464512523695745
  0.2566867885849220  0.7437851998372196  0.9977798423622133
  0.0016653075664337  0.4972107000235155  0.4984976448997500
  0.0003037495845604  0.7459733115626648  0.7488636640135127
  0.2509391406860857  0.4976854384562657  0.7527489411899069
  0.2509064573411379  0.7483981781978386  0.5023431690393849
  0.5014088191816128  0.9977341902922987  0.0006738945032794
  0.5001638234647956  0.2487017715673900  0.2481797335599438
  0.7535110630569406  0.9985848035489440  0.2482703840559495
  0.7489533365222272  0.2503397453155358  0.9983937487854533
  0.4992160792983142  0.9996606233011747  0.4971749044835434
  0.4947487468940679  0.2477753132532285  0.7552967410123799
  0.7486978711706200  0.9967547689729770  0.7486414178704592
  0.7528997395858141  0.2495672848668775  0.5013586375256409
  0.4992216851477238  0.5005810545554965  0.0025784059687979
  0.4970967150238366  0.7480288014316656  0.2500785481717784
  0.7500172420709390  0.4996257718236308  0.2487875877733003
  0.7466797242272847  0.7499170205655261  0.9997726581134287
  0.5037287363187843  0.5011847590859020  0.4996257173812921
  0.5016404844111193  0.7508927924663595  0.7501951136796166
  0.7520845442268538  0.5004002255955484  0.7490366370893824
  0.7538728774316539  0.7463716968354532  0.4947706676617472
 
  0.00000000E+00  0.00000000E+00  0.00000000E+00
  0.00000000E+00  0.00000000E+00  0.00000000E+00
  0.00000000E+00  0.00000000E+00  0.00000000E+00
  0.00000000E+00  0.00000000E+00  0.00000000E+00
  0.00000000E+00  0.00000000E+00  0.00000000E+00
  0.00000000E+00  0.00000000E+00  0.00000000E+00
  0.00000000E+00  0.00000000E+00  0.00000000E+00
  0.00000000E+00  0.00000000E+00  0.00000000E+00
  0.00000000E+00  0.00000000E+00  0.00000000E+00
  0.00000000E+00  0.00000000E+00  0.00000000E+00
  0.00000000E+00  0.00000000E+00  0.00000000E+00
  0.00000000E+00  0.00000000E+00  0.00000000E+00
  0.00000000E+00  0.00000000E+00  0.00000000E+00
  0.00000000E+00  0.00000000E+00  0.00000000E+00
  0.00000000E+00  0.00000000E+00  0.00000000E+00
  0.00000000E+00  0.00000000E+00  0.00000000E+00
  0.00000000E+00  0.00000000E+00  0.00000000E+00
  0.00000000E+00  0.00000000E+00  0.00000000E+00
  0.00000000E+00  0.00000000E+00  0.00000000E+00
  0.00000000E+00  0.00000000E+00  0.00000000E+00
  0.00000000E+00  0.00000000E+00  0.00000000E+00
  0.00000000E+00  0.00000000E+00  0.00000000E+00
  0.00000000E+00  0.00000000E+00  0.00000000E+00
  0.00000000E+00  0.00000000E+00  0.00000000E+00
  0.00000000E+00  0.00000000E+00  0.00000000E+00
  0.00000000E+00  0.00000000E+00  0.00000000E+00
  0.00000000E+00  0.00000000E+00  0.00000000E+00
  0.00000000E+00  0.00000000E+00  0.00000000E+00
  0.00000000E+00  0.00000000E+00  0.00000000E+00
  0.00000000E+00  0.00000000E+00  0.00000000E+00
  0.00000000E+00  0.00000000E+00  0.00000000E+00
  0.00000000E+00  0.00000000E+00  0.00000000E+00
  0.00000000E+00  0.00000000E+00  0.00000000E+00
  0.00000000E+00  0.00000000E+00  0.00000000E+00
  0.00000000E+00  0.00000000E+00  0.00000000E+00
  0.00000000E+00  0.00000000E+00  0.00000000E+00
  0.00000000E+00  0.00000000E+00  0.00000000E+00
  0.00000000E+00  0.00000000E+00  0.00000000E+00
  0.00000000E+00  0.00000000E+00  0.00000000E+00
  0.00000000E+00  0.00000000E+00  0.00000000E+00
  0.00000000E+00  0.00000000E+00  0.00000000E+00
  0.00000000E+00  0.00000000E+00  0.00000000E+00
  0.00000000E+00  0.00000000E+00  0.00000000E+00
  0.00000000E+00  0.00000000E+00  0.00000000E+00
  0.00000000E+00  0.00000000E+00  0.00000000E+00
  0.00000000E+00  0.00000000E+00  0.00000000E+00
  0.00000000E+00  0.00000000E+00  0.00000000E+00
  0.00000000E+00  0.00000000E+00  0.00000000E+00
  0.00000000E+00  0.00000000E+00  0.00000000E+00
  0.00000000E+00  0.00000000E+00  0.00000000E+00
  0.00000000E+00  0.00000000E+00  0.00000000E+00
  0.00000000E+00  0.00000000E+00  0.00000000E+00
  0.00000000E+00  0.00000000E+00  0.00000000E+00
  0.00000000E+00  0.00000000E+00  0.00000000E+00
  0.00000000E+00  0.00000000E+00  0.00000000E+00
  0.00000000E+00  0.00000000E+00  0.00000000E+00
  0.00000000E+00  0.00000000E+00  0.00000000E+00
  0.00000000E+00  0.00000000E+00  0.00000000E+00
  0.00000000E+00  0.00000000E+00  0.00000000E+00
  0.00000000E+00  0.00000000E+00  0.00000000E+00
  0.00000000E+00  0.00000000E+00  0.00000000E+00
  0.00000000E+00  0.00000000E+00  0.00000000E+00
  0.00000000E+00  0.00000000E+00  0.00000000E+00
  0.00000000E+00  0.00000000E+00  0.00000000E+00
