 C Si 
 1.0000000000000000
     8.7433155800000009    0.0000000000000000    0.0000000000000000
     0.0000000000000000    8.7433155800000009    0.0000000000000000
     0.0000000000000000    0.0000000000000000    8.7433155800000009
 C   Si 
  32  32
Cartesian
  1.0929000311712700  1.0398585314525710  1.1119302674828844
  1.0411539321601635  3.2492609825533201  3.2499854018023422
  3.2835590472232759  1.0923903160235442  3.2910347272739102
  3.2576026473876905  3.3238924818659492  1.1307771095548127
  1.1318598010597249  1.0739380560990028  5.4321842107742810
  1.1250941373318633  3.2824430156785902  7.6790290453137642
  3.2662211539837083  1.0662345218007565  7.6314687554266989
  3.2900192085981654  3.2850354581975054  5.4478872991241163
  1.0578478213841820  5.4464047390186092  1.1603614326684717
  1.0637390093908707  7.6564349631796311  3.2480808485667985
  3.2629192730445529  5.4289993300009449  3.2749026509313230
  3.2644506389660863  7.6761011023176549  1.1179643708207376
  1.1385662216721004  5.4255893119161618  5.4549440037319181
  1.0941147132080964  7.6570257489104447  7.6421731169873102
  3.2775213914020203  5.4331268172436049  7.6859250871286067
  3.2832626272871717  7.6607216864148810  5.4778264685571205
  5.4601559111329703  1.0928976383158278  1.0883560566681354
  5.4954714245412992  3.2146104788413092  3.2575745386049904
  7.6884564595866625  1.1020070717613168  3.2280766332385311
  7.6491918930671474  3.2890158040216377  1.0698900879708584
  5.4781752840530054  1.0907387738155894  5.4550964411313290
  5.3963968024393214  3.2898405176996648  7.6397490424683410
  7.6653512999157787  1.1842833749000519  7.6041793814126608
  7.6171161358880193  3.2573675113647051  5.4099360615788790
  5.4860871581543211  5.3978770981914348  1.0916194795441756
  5.4642307207731715  7.6374641656925402  3.2510211665301560
  7.6553443892874640  5.4221468590254762  3.2686938273221937
  7.6442636562603283  7.6735137961809281  1.0510265449807032
  5.4713599436126854  5.4260694554695625  5.4754296388068946
  5.4645031029002915  7.7008225733952482  7.6770348841163791
  7.6289424227174880  5.4765057569810676  7.6430520958717567
  7.6283866799430307  7.6439557279399084  5.4821976589985972
  0.0809127017719041 -0.0020193877291908 -0.0093399982732119
 -0.0060588224973579  2.1842944140535439  2.1583587988007435
  2.1683069745334596 -0.0212923984436167  2.1666547443787136
  2.2212425304011720  2.1846936541233988 -0.0288570153407565
 -0.0260092164317353  0.0237210075287552  4.3868046782086383
 -0.0044775002742155  2.1663573294125618  6.5975337124127247
  2.2114490216585527  0.0318041080385801  6.5439868541497397
  2.1524470236755175  2.1431926481729247  4.3738335559796040
  0.0014899530696252  4.3968753976785395  0.0302354436139371
  0.0292302035452976  6.5578936971295869  2.2313955685432632
  2.1463820443604975  4.3587567676358017  2.1548010745534185
  2.2442935978147256  6.5031487259101972 -0.0194115388645401
  0.0145603095910799  4.3472700600583334  4.3585222252453164
  0.0026557784751228  6.5222800772500147  6.5475513408652457
  2.1940400983924673  4.3514208479938210  6.5815215453341880
  2.1937543375933921  6.5434814514807655  4.3921448563686480
  4.3839755406999741 -0.0198106893186374  0.0058920723098196
  4.3730901502521045  2.1744780741187899  2.1699137310749306
  6.5881850173281107 -0.0123735091792638  2.1707063169689627
  6.5483353759078007  2.1887993955105367 -0.0140439612695700
  4.3648037239154567 -0.0029672775783038  4.3469570883559490
  4.3257444269043797  2.1663777567063103  6.6037977632167593
  6.5461017617188997 -0.0283740789992946  6.5456081727000459
  6.5828400232985711  2.1820455300348391  4.3835367866455339
  4.3648527376259230  4.3767381333479092  0.0225438170785839
  4.3462734532347440  6.5402518738461977  2.1865156664540613
  6.5576374378674602  4.3683857949550582  2.1752283922889011
  6.5284564661065474  6.5567611696177739 -0.0019877218588646
  4.4042593083497295  4.3820165125743156  4.3683853189485538
  4.3860010629104975  6.5652926512808021  6.5591926254748891
  6.5757125130158220  4.3751570886850697  6.5490636990544191
  6.5913484745876305  6.5257632854124292  4.3259360870939352
