 C Si                                   
   1.00000000000000     
     8.7433155800000009    0.0000000000000000    0.0000000000000000
     0.0000000000000000    8.7433155800000009    0.0000000000000000
     0.0000000000000000    0.0000000000000000    8.7433155800000009
   C    Si
    32    32
Direct
  0.1263091528857387  0.1279220257707081  0.1299937841972465
  0.1260813888791219  0.3735022218357500  0.3768818041670272
  0.3760031497912308  0.1262076235636371  0.3755901072876711
  0.3727129205607724  0.3745123774516443  0.1230290425111633
  0.1240151940649667  0.1260255939407813  0.6272702084234467
  0.1288274592134258  0.3745054571766602  0.8733888113332284
  0.3732015189197924  0.1236952378595220  0.8745145966452057
  0.3708789673776920  0.3753992852968793  0.6257503728346236
  0.1270744085135647  0.6243597574978992  0.1259871372429373
  0.1251679847133076  0.8762529073298921  0.3764500292461719
  0.3723813098088513  0.6250545911552479  0.3761039363776248
  0.3756945073418976  0.8751427010467339  0.1254494660310641
  0.1235044781789298  0.6261684281278690  0.6217881106905168
  0.1247211805205310  0.8734059171036321  0.8759805217753396
  0.3752023848214137  0.6280468304800380  0.8756546553038334
  0.3748692277203602  0.8737836610422889  0.6234985632789503
  0.6231755121987916  0.1251600567674060  0.1230615287878507
  0.6236473534405391  0.3741010491117294  0.3782426573497588
  0.8726222585581169  0.1272492999142614  0.3750077035005148
  0.8741936959387644  0.3751263142076908  0.1264911083414688
  0.6248258725571887  0.1213743888600050  0.6237326613464873
  0.6281044663596376  0.3710636834387415  0.8758290291747457
  0.8720304342846603  0.1264661229602169  0.8735785686946400
  0.8739907037541812  0.3755974590464390  0.6241713269820224
  0.6245932756705486  0.6225677429228327  0.1252549401246128
  0.6237266146264702  0.8741463439199606  0.3737924350027626
  0.8743994786165956  0.6241809541195238  0.3747231841969025
  0.8744543530735598  0.8763180741257841  0.1264509825151166
  0.6235479616979873  0.6263500325606088  0.6251885219979840
  0.6270628972835155  0.8732010664871694  0.8743818009067112
  0.8765897682125754  0.6240830442498151  0.8772065610206852
  0.8781598384768401  0.8737130185699300  0.6253542835223698
  0.0003851498967720  0.0012988565975363  0.9999798248242087
  0.0004841266946585  0.2499624478633962  0.2523074631730395
  0.2504896487490242  0.9998723399948020  0.2513322010095465
  0.2507388409081557  0.2511872522763667  0.0011653302492931
  0.9962576763945350  0.9981474080793618  0.5005374409047647
  0.0015330203545147  0.2466548905807358  0.7511431006725715
  0.2502327601272967  0.0004222728344772  0.7502348709327222
  0.2496880931189835  0.2488037756379811  0.5017066743569600
  0.0027117429242622  0.4988821276400301  0.0002308283636907
  0.9988531373578979  0.7497383591002347  0.2539839945749875
  0.2496709157396140  0.4995339649148320  0.2467194656550902
  0.2496667226498346  0.7511460989658119  0.0020929595444628
  0.0002544031325371  0.4991875414663411  0.4995344274434714
  0.9985338425954495  0.7487980456733752  0.7512133027760726
  0.2493968670385058  0.4995217807666137  0.7520877602085108
  0.2471639558602590  0.7480623933948820  0.4985136928540257
  0.4972195701452691  0.0001810995588727  0.9985788464334746
  0.5003873831234600  0.2501469228133288  0.2490750507216930
  0.7525147043985214  0.9996944590806365  0.2492364951445438
  0.7493728081138684  0.2497188425729391  0.9966816713002515
  0.5001939909660535  0.0011145266513282  0.5016358248224861
  0.4991879007120090  0.2513881471576340  0.7504973982481076
  0.7516894913388654  0.9998306448907783  0.7484701130044797
  0.7490834314779704  0.2509170041211064  0.4994404230351748
  0.4974795445882805  0.4979979694035350  0.9975697461943014
  0.4992708909320100  0.7532042116625064  0.2497666005893606
  0.7482991058958390  0.5002365264518787  0.2489913049925008
  0.7481016417451372  0.7513107627486377  0.9979288162079456
  0.4980083730994522  0.5004911325278911  0.4987307218066519
  0.4984647830789370  0.7499814622956507  0.7517322320827162
  0.7501421471046754  0.5020554024789448  0.7502886226652024
  0.7524936402069216  0.7498134353088517  0.4998564737903024
 
  0.00000000E+00  0.00000000E+00  0.00000000E+00
  0.00000000E+00  0.00000000E+00  0.00000000E+00
  0.00000000E+00  0.00000000E+00  0.00000000E+00
  0.00000000E+00  0.00000000E+00  0.00000000E+00
  0.00000000E+00  0.00000000E+00  0.00000000E+00
  0.00000000E+00  0.00000000E+00  0.00000000E+00
  0.00000000E+00  0.00000000E+00  0.00000000E+00
  0.00000000E+00  0.00000000E+00  0.00000000E+00
  0.00000000E+00  0.00000000E+00  0.00000000E+00
  0.00000000E+00  0.00000000E+00  0.00000000E+00
  0.00000000E+00  0.00000000E+00  0.00000000E+00
  0.00000000E+00  0.00000000E+00  0.00000000E+00
  0.00000000E+00  0.00000000E+00  0.00000000E+00
  0.00000000E+00  0.00000000E+00  0.00000000E+00
  0.00000000E+00  0.00000000E+00  0.00000000E+00
  0.00000000E+00  0.00000000E+00  0.00000000E+00
  0.00000000E+00  0.00000000E+00  0.00000000E+00
  0.00000000E+00  0.00000000E+00  0.00000000E+00
  0.00000000E+00  0.00000000E+00  0.00000000E+00
  0.00000000E+00  0.00000000E+00  0.00000000E+00
  0.00000000E+00  0.00000000E+00  0.00000000E+00
  0.00000000E+00  0.00000000E+00  0.00000000E+00
  0.00000000E+00  0.00000000E+00  0.00000000E+00
  0.00000000E+00  0.00000000E+00  0.00000000E+00
  0.00000000E+00  0.00000000E+00  0.00000000E+00
  0.00000000E+00  0.00000000E+00  0.00000000E+00
  0.00000000E+00  0.00000000E+00  0.00000000E+00
  0.00000000E+00  0.00000000E+00  0.00000000E+00
  0.00000000E+00  0.00000000E+00  0.00000000E+00
  0.00000000E+00  0.00000000E+00  0.00000000E+00
  0.00000000E+00  0.00000000E+00  0.00000000E+00
  0.00000000E+00  0.00000000E+00  0.00000000E+00
  0.00000000E+00  0.00000000E+00  0.00000000E+00
  0.00000000E+00  0.00000000E+00  0.00000000E+00
  0.00000000E+00  0.00000000E+00  0.00000000E+00
  0.00000000E+00  0.00000000E+00  0.00000000E+00
  0.00000000E+00  0.00000000E+00  0.00000000E+00
  0.00000000E+00  0.00000000E+00  0.00000000E+00
  0.00000000E+00  0.00000000E+00  0.00000000E+00
  0.00000000E+00  0.00000000E+00  0.00000000E+00
  0.00000000E+00  0.00000000E+00  0.00000000E+00
  0.00000000E+00  0.00000000E+00  0.00000000E+00
  0.00000000E+00  0.00000000E+00  0.00000000E+00
  0.00000000E+00  0.00000000E+00  0.00000000E+00
  0.00000000E+00  0.00000000E+00  0.00000000E+00
  0.00000000E+00  0.00000000E+00  0.00000000E+00
  0.00000000E+00  0.00000000E+00  0.00000000E+00
  0.00000000E+00  0.00000000E+00  0.00000000E+00
  0.00000000E+00  0.00000000E+00  0.00000000E+00
  0.00000000E+00  0.00000000E+00  0.00000000E+00
  0.00000000E+00  0.00000000E+00  0.00000000E+00
  0.00000000E+00  0.00000000E+00  0.00000000E+00
  0.00000000E+00  0.00000000E+00  0.00000000E+00
  0.00000000E+00  0.00000000E+00  0.00000000E+00
  0.00000000E+00  0.00000000E+00  0.00000000E+00
  0.00000000E+00  0.00000000E+00  0.00000000E+00
  0.00000000E+00  0.00000000E+00  0.00000000E+00
  0.00000000E+00  0.00000000E+00  0.00000000E+00
  0.00000000E+00  0.00000000E+00  0.00000000E+00
  0.00000000E+00  0.00000000E+00  0.00000000E+00
  0.00000000E+00  0.00000000E+00  0.00000000E+00
  0.00000000E+00  0.00000000E+00  0.00000000E+00
  0.00000000E+00  0.00000000E+00  0.00000000E+00
  0.00000000E+00  0.00000000E+00  0.00000000E+00
