 C Si 
 1.0000000000000000
     8.7433155800000009    0.0000000000000000    0.0000000000000000
     0.0000000000000000    8.7433155800000009    0.0000000000000000
     0.0000000000000000    0.0000000000000000    8.7433155800000009
 C   Si 
  32  32
Cartesian
  1.1043607843224617  1.1184626409461651  1.1365766786749492
  1.1023693717348659  3.2656477953411529  3.2951965501920490
  3.2875141976987283  1.1034730814187150  3.2839028367421625
  3.2587466852063049  3.2744799046758071  1.0756817441803146
  1.0843039784249200  1.1018815389811940  5.4844213861785578
  1.1263791312725406  3.2744193985277237  7.6363140015275244
  3.2630186548510927  1.0815065003489357  7.6461570977854478
  3.2427118537676853  3.2822344198570792  5.4711329839957914
  1.1110516557759633  5.4589743952564289  1.1015452999357869
  1.0943831908610762  7.6613556966777665  3.2914214057995350
  3.2558473077525671  5.4650495451981991  3.2883954066298333
  3.2848156393628174  7.6516488127852158  1.0968442708520934
  1.0798386282615973  5.4747881733544927  5.4364896756591676
  1.0904766408011566  7.6364635626763882  7.6589741438148513
  3.2805128568622206  5.4912116379057583  7.6561249904175348
  3.2775999591900029  7.6397662971404667  5.4514447024244914
  5.4486201648821835  1.0943138743281511  1.0759657819494526
  5.4527456217624204  3.2708835311929216  3.3070949190267656
  7.6296117887059838  1.1125807864844433  3.2788106966360937
  7.6433513616391808  3.2798477474800696  1.1059516782934509
  5.4630497863163843  1.0612145851326464  5.4534914957056291
  5.4917155665898179  3.2443268845821529  7.6576495961998585
  7.6244372823152400  1.1057332232202581  7.6379731100219672
  7.6415765369091080  3.2839671154891192  5.4573268877911767
  5.4610161183335642  5.4433062463026118  1.0951434694634834
  5.4534386273242985  7.6429373479954599  3.2681852206457873
  7.6451505845323799  5.4574110608924871  3.2763230545760069
  7.6456303692268470  7.6619254705395692  1.1056008455307231
  5.4518766083912542  5.4763759982206910  5.4662205448221322
  5.4826087994588741  7.6346724890899038  7.6449960227361311
  7.6643009776815845  5.4565550040032189  7.6696937918503547
  7.6780285974848113  7.6391486477112904  5.4676698501408767
  0.0033674870930677  0.0113563131254441 -0.0001763979288535
  0.0042328724721264  2.1855005648189856  2.2060037737111204
  2.1901100485360545 -0.0011161717123686  2.1974767488424658
  2.1922888142234265  2.1962094163253663  0.0101888501244752
 -0.0327203162850884 -0.0161977958030818  4.3763568054359787
  0.0134036807501148  2.1565815476977646  6.5674811749200313
  2.1878639902474162  0.0036920646526854  6.5595402356853620
  2.1831017947077065  2.1753699278984104  4.3865797824951889
  0.0237096241586679  4.3618838791785954  0.0020182052285784
 -0.0100273820067872  6.5551990760447065  2.2206622168381256
  2.1829516074590294  4.3675830981790540  2.1571461479514271
  2.1829149459518637  6.5675073899439962  0.0182994057933842
  0.0022243268722866  4.3645542086445470  4.3675871422129040
 -0.0128190768779637  6.5469776190095601  6.5680949740652999
  2.1805555131809347  4.3674765683260635  6.5757406313583626
  2.1610324660874607  6.5405455789815772  4.3586625375739656
  4.3473476143320591  0.0015834105946376 -0.0124255941197628
  4.3750448028987483  2.1871134875228657  2.1777417715642691
  6.5794735391466954 -0.0026714406806083  2.1791533311019058
  6.5520029484103253  2.1833706468875453 -0.0290131950200707
  4.3733539142358966  0.0097446582348832  4.3859603226565724
  4.3645573496427890  2.1979659036706956  6.5618355948521447
  6.5722584409453537 -0.0014807251649803  6.5441104001964012
  6.5494728371611961  2.1938465514190222  4.3667652320052577
  4.3496206529300423  4.3541534046942783 -0.0212484759627369
  4.3652829593262972  6.5855021187503864  2.1837882102966222
  6.5426152310791457  4.3737258154118006  2.1770095562254772
  6.5408887396938127  6.5689470973618542 -0.0181090135181287
  4.3542443674908791  4.3759519166829639  4.3605600901967740
  4.3582349039754185  6.5573246040007502  6.5726321367569982
  6.5587295219949873  4.3896288225173290  6.5600102040453780
  6.5792893682721081  6.5558554910292361  4.3704028950546210
