 C Si                                   
   1.00000000000000     
     8.7433155800000009    0.0000000000000000    0.0000000000000000
     0.0000000000000000    8.7433155800000009    0.0000000000000000
     0.0000000000000000    0.0000000000000000    8.7433155800000009
   C    Si
    32    32
Direct
  0.1166962035943229  0.1239876767935471  0.1191146013271194
  0.1303382796772254  0.3759670871651011  0.3744861871515113
  0.3778089966864044  0.1230813943073130  0.3805026281816737
  0.3710812302856397  0.3720380574378197  0.1287118884911607
  0.1258931979555697  0.1311265750423871  0.6283006044478228
  0.1240060863902031  0.3776556581250219  0.8794620841644161
  0.3764455617906037  0.1271484454638454  0.8737524244655930
  0.3682582301758046  0.3752341803937824  0.6262832658877002
  0.1267752913474496  0.6225390964901578  0.1261792170575191
  0.1191962915840676  0.8762412855454116  0.3802058431615905
  0.3686581615211821  0.6238717644869425  0.3787384061634995
  0.3745448870686161  0.8752254554165333  0.1256524105871506
  0.1216268679318588  0.6314911497841607  0.6219409630668267
  0.1230369770525073  0.8686501135373703  0.8735039543380694
  0.3831610430656909  0.6266558508611837  0.8740729765628004
  0.3729909587476499  0.8719405670395162  0.6330459039147058
  0.6287065472730120  0.1201000041453710  0.1233553180716171
  0.6193016370805964  0.3729353212574935  0.3711205945011642
  0.8763832671473466  0.1200556597494398  0.3730539064861347
  0.8813080609875286  0.3740392520988465  0.1289238396718986
  0.6234125819569982  0.1291873234214123  0.6277819995471035
  0.6266769152093943  0.3783364461452265  0.8736227960152902
  0.8760465712039434  0.1214369097365093  0.8759184004498266
  0.8757504140385777  0.3740893944083936  0.6258813614820937
  0.6307458077290278  0.6269597837787799  0.1259661692855119
  0.6262878123171589  0.8780031233927801  0.3739150324460994
  0.8738208733646431  0.6239202578192078  0.3766749200549668
  0.8729327889030287  0.8771167844613430  0.1239130518120959
  0.6227059967711384  0.6247277046358732  0.6242356425015387
  0.6171604414826888  0.8762010671507952  0.8746848117476489
  0.8736200871354782  0.6251790019009604  0.8758854588168461
  0.8773041436770441  0.8742195814603377  0.6242725175501747
  0.0027498075949595  0.9900952471272504  0.9986543026867309
  0.0010107736755174  0.2456164788776647  0.2497544566605612
  0.2549208332736725  0.9970171734775803  0.2463156273870908
  0.2485148311471050  0.2494528744850513  0.0017085094337617
  0.9985617978854719  0.9974515210449511  0.5049222546133834
  0.0009276852317228  0.2506797724633500  0.7513730543576855
  0.2462923652981530  0.9952788450959744  0.7502553589642247
  0.2444753836024560  0.2473489566130880  0.5109137563868487
  0.9997435846595195  0.4963783267292854  0.0058750010038580
  0.9927096615859767  0.7447861555159463  0.2463005987651101
  0.2448249728553904  0.5027451692146840  0.2451031841843658
  0.2505886861580535  0.7453625400451855  0.0056058187769779
  0.0005677105370765  0.4963623230843126  0.5041506418126147
  0.9997646211602103  0.7547333138076908  0.7476271912979371
  0.2539056914869136  0.5002463640922628  0.7510277407370083
  0.2513252353167843  0.7445716836584140  0.4951464020136740
  0.4983844380716747  0.9982059820195914  0.0012860658540461
  0.5017561651657516  0.2506576564345124  0.2514300475541162
  0.7420119683506599  0.9989927623542272  0.2497490560754798
  0.7525479703156890  0.2501665436516802  0.0009689849249312
  0.4985518355203737  0.0015503131031238  0.5033787151480453
  0.4971875770304592  0.2467102582478731  0.7481899233152873
  0.7549545710730641  0.0020333070703842  0.7563874707843539
  0.7508763632343971  0.2530790428691532  0.5041336651513220
  0.5008249665227353  0.5044374608354758  0.0024116066294937
  0.5087006177974942  0.7489833420529806  0.2487011900522020
  0.7434823618354613  0.5030439036340084  0.2510360213704672
  0.7530121423436427  0.7534538518161185  0.0013419396648473
  0.4921343239422953  0.5038169289764198  0.4997973963585807
  0.5009240793288825  0.7520432323636683  0.7489147670432743
  0.7503238923870228  0.4950766772022206  0.7481442919152244
  0.7516353408662582  0.7515032199328644  0.4855195988625596
 
  0.00000000E+00  0.00000000E+00  0.00000000E+00
  0.00000000E+00  0.00000000E+00  0.00000000E+00
  0.00000000E+00  0.00000000E+00  0.00000000E+00
  0.00000000E+00  0.00000000E+00  0.00000000E+00
  0.00000000E+00  0.00000000E+00  0.00000000E+00
  0.00000000E+00  0.00000000E+00  0.00000000E+00
  0.00000000E+00  0.00000000E+00  0.00000000E+00
  0.00000000E+00  0.00000000E+00  0.00000000E+00
  0.00000000E+00  0.00000000E+00  0.00000000E+00
  0.00000000E+00  0.00000000E+00  0.00000000E+00
  0.00000000E+00  0.00000000E+00  0.00000000E+00
  0.00000000E+00  0.00000000E+00  0.00000000E+00
  0.00000000E+00  0.00000000E+00  0.00000000E+00
  0.00000000E+00  0.00000000E+00  0.00000000E+00
  0.00000000E+00  0.00000000E+00  0.00000000E+00
  0.00000000E+00  0.00000000E+00  0.00000000E+00
  0.00000000E+00  0.00000000E+00  0.00000000E+00
  0.00000000E+00  0.00000000E+00  0.00000000E+00
  0.00000000E+00  0.00000000E+00  0.00000000E+00
  0.00000000E+00  0.00000000E+00  0.00000000E+00
  0.00000000E+00  0.00000000E+00  0.00000000E+00
  0.00000000E+00  0.00000000E+00  0.00000000E+00
  0.00000000E+00  0.00000000E+00  0.00000000E+00
  0.00000000E+00  0.00000000E+00  0.00000000E+00
  0.00000000E+00  0.00000000E+00  0.00000000E+00
  0.00000000E+00  0.00000000E+00  0.00000000E+00
  0.00000000E+00  0.00000000E+00  0.00000000E+00
  0.00000000E+00  0.00000000E+00  0.00000000E+00
  0.00000000E+00  0.00000000E+00  0.00000000E+00
  0.00000000E+00  0.00000000E+00  0.00000000E+00
  0.00000000E+00  0.00000000E+00  0.00000000E+00
  0.00000000E+00  0.00000000E+00  0.00000000E+00
  0.00000000E+00  0.00000000E+00  0.00000000E+00
  0.00000000E+00  0.00000000E+00  0.00000000E+00
  0.00000000E+00  0.00000000E+00  0.00000000E+00
  0.00000000E+00  0.00000000E+00  0.00000000E+00
  0.00000000E+00  0.00000000E+00  0.00000000E+00
  0.00000000E+00  0.00000000E+00  0.00000000E+00
  0.00000000E+00  0.00000000E+00  0.00000000E+00
  0.00000000E+00  0.00000000E+00  0.00000000E+00
  0.00000000E+00  0.00000000E+00  0.00000000E+00
  0.00000000E+00  0.00000000E+00  0.00000000E+00
  0.00000000E+00  0.00000000E+00  0.00000000E+00
  0.00000000E+00  0.00000000E+00  0.00000000E+00
  0.00000000E+00  0.00000000E+00  0.00000000E+00
  0.00000000E+00  0.00000000E+00  0.00000000E+00
  0.00000000E+00  0.00000000E+00  0.00000000E+00
  0.00000000E+00  0.00000000E+00  0.00000000E+00
  0.00000000E+00  0.00000000E+00  0.00000000E+00
  0.00000000E+00  0.00000000E+00  0.00000000E+00
  0.00000000E+00  0.00000000E+00  0.00000000E+00
  0.00000000E+00  0.00000000E+00  0.00000000E+00
  0.00000000E+00  0.00000000E+00  0.00000000E+00
  0.00000000E+00  0.00000000E+00  0.00000000E+00
  0.00000000E+00  0.00000000E+00  0.00000000E+00
  0.00000000E+00  0.00000000E+00  0.00000000E+00
  0.00000000E+00  0.00000000E+00  0.00000000E+00
  0.00000000E+00  0.00000000E+00  0.00000000E+00
  0.00000000E+00  0.00000000E+00  0.00000000E+00
  0.00000000E+00  0.00000000E+00  0.00000000E+00
  0.00000000E+00  0.00000000E+00  0.00000000E+00
  0.00000000E+00  0.00000000E+00  0.00000000E+00
  0.00000000E+00  0.00000000E+00  0.00000000E+00
  0.00000000E+00  0.00000000E+00  0.00000000E+00
