 C Si 
 1.0000000000000000
     8.7433155800000009    0.0000000000000000    0.0000000000000000
     0.0000000000000000    8.7433155800000009    0.0000000000000000
     0.0000000000000000    0.0000000000000000    8.7433155800000009
 C   Si 
  32  32
Cartesian
  1.0203117350130702  1.0840633862370277  1.0414565495889168
  1.1395887113722873  3.2871988907778484  3.2742509146165957
  3.3033032869924290  1.0761394724552726  3.3268545572117620
  3.2444803022019726  3.2528461439490131  1.1253686599760069
  1.1007239591009434  1.1464810265201619  5.4934304637920608
  1.0842243471503001  3.3019625995596420  7.6894145424940010
  3.2913823454256694  1.1116989841968103  7.6394931858928103
  3.2197979213593118  3.2807908555854834  5.4757922361292177
  1.1084363799971684  5.4430557815015090  1.1032247143711829
  1.0421707932851989  7.6612540837483971  3.3242596721217672
  3.2232946473223016  5.4547077183607744  3.3114294073537169
  3.2747641465163921  7.6523723603559581  1.0986186791512071
  1.0634220893352211  5.5213264085399851  5.4378261122224059
  1.0757511183792678  7.5948820712600389  7.6373207331556756
  3.3500979174852796  5.4790498641327572  7.6422958740384814
  3.2611776608174425  7.6236515446306159  5.5349201145526417
  5.4969797500201425  1.0500722374022928  1.0785344743714389
  5.4147496522062690  3.2606912046829519  3.2448244759608658
  7.6624954737006972  1.0496845203544765  3.2617280327600744
  7.7055545004118642  3.2703432204073923  1.1272218160367105
  5.4506929405926501  1.1295255376089144  5.4888961374837670
  5.4792340363766359  3.3079149440633895  7.6383598034436426
  7.6595516348130230  1.0617612248862909  7.6584309974616298
  7.6569622392549510  3.2707816304436776  5.4722782590779779
  5.5148096477368638  5.4817072455464553  1.1013619704669606
  5.4758319869967531  7.6766583880487733  3.2692571287821930
  7.6400916562182770  5.4551317108682680  3.2933876971118252
  7.6323268535086841  7.6689088470603588  1.0834109164740464
  5.4445150433285079  5.4621914732004795  5.4578892186749846
  5.3960285033752751  7.6609024416321754  7.6476453421425559
  7.6383361188525738  5.4661373076095181  7.6581429783687520
  7.6705469878100878  7.6435776869232255  5.4582116288622613
  0.0240424355869882 -0.0866003801083820 -0.0117658562850686
  0.0088375132250105  2.1475023864758067  2.1836820320947230
  2.2288532932283105 -0.0260797936059223  2.1536152625310532
  2.1728435950295615  2.1810452039609070  0.0149380371507775
 -0.0125746549551676 -0.0222821557530032  4.4146946154498927
  0.0081110447398814  2.1917723601696730  6.5694917325577702
  2.1534118747463902 -0.0412785472279432  6.5597193690103932
  2.1375254303778521  2.1626499860519299  4.4670802062534465
 -0.0022419202413789  4.3399923576665165  0.0513669878095493
 -0.0637417294387839  6.5119003972908480  2.1534838625462895
  2.1405819995395947  4.3956596707644708  2.1430144889868008
  2.1909759638574529  6.5169399091254654  0.0490134426513922
  0.0049636723837244  4.3398524327480423  4.4079481612272069
 -0.0020579914771158  6.5988715413598236  6.5367404697068752
  2.2199775882282262  4.3738118290062138  6.5664725465980807
  2.1974158455923938  6.5100252021574692  4.3292212511071080
  4.3575324222216327 -0.0156856653589149  0.0112444796185894
  4.3870124962547621  2.1915789927501850  2.1983322520600455
  6.4876448034267709 -0.0088065966010645  2.1836348130750176
  6.5797643935585253  2.1872850387044562  0.0084721409909367
  4.3589960309428610  0.0135548767083900  4.4011989627942869
  4.3470678884328837  2.1570656446844412  6.5416606133215511
  6.6008060634553631  0.0177778453874285  6.6133343578256101
  6.5651490053210511  2.2127499384893747  4.4077997289200388
  4.3788707326512064  4.4104559104584276  0.0210854378164530
  4.4477300371444670  6.5485977237323150  2.1744729897479411
  6.5005009176912090  4.3982716000672699  2.1948871567896471
  6.5838227960823188  6.5876848013948859  0.0117330019790494
  4.3028857019774609  4.4050304045873157  4.3698863624254320
  4.3797373071933743  6.5753513103588315  6.5479981507815266
  6.5603185783536713  4.3286116250768076  6.5412616435904596
  6.5717849862745918  6.5706298112591703  4.2450510731303401
