 C Si                                   
   1.00000000000000     
     8.7433155800000009    0.0000000000000000    0.0000000000000000
     0.0000000000000000    8.7433155800000009    0.0000000000000000
     0.0000000000000000    0.0000000000000000    8.7433155800000009
   C    Si
    32    32
Direct
  0.1212130819192296  0.1219267704676597  0.1257409891481487
  0.1254439346015204  0.3728693491458017  0.3770792160321150
  0.3736654356589995  0.1241294823668966  0.3722035968402935
  0.3675680486957589  0.3783481480236972  0.1274115919325780
  0.1278068465831765  0.1236098488455326  0.6273639729219198
  0.1243022193508310  0.3735445948128913  0.8788342072648305
  0.3743539632056070  0.1254220771263803  0.8734138260231674
  0.3714020281556074  0.3731455895520952  0.6254112267895167
  0.1265612257742319  0.6237575999656357  0.1218280896238539
  0.1272748862480810  0.8737376350792161  0.3738779208938254
  0.3780624357217093  0.6227838732608006  0.3768260459824901
  0.3765833750437579  0.8772365542882881  0.1262523394997430
  0.1242162232274993  0.6247764250812935  0.6243561072256369
  0.1292760340785861  0.8757060642093393  0.8803600468150279
  0.3746318915199183  0.6281374113699201  0.8735110157255903
  0.3771472042905728  0.8751874919874822  0.6269494207627062
  0.6251375281350491  0.1254556723963418  0.1271901227624141
  0.6229371296599666  0.3726282773594960  0.3736284190781234
  0.8745215021200607  0.1230126280030746  0.3769958407984646
  0.8788532010512498  0.3776689983732311  0.1270491273883891
  0.6244963770343475  0.1257328376510856  0.6254755930394182
  0.6223587076271073  0.3796250772576641  0.8699045715567166
  0.8778937944284593  0.1273479556768535  0.8784167007105239
  0.8741173721176665  0.3729962775091522  0.6222389614653707
  0.6259070735006347  0.6269859867930947  0.1230269952979341
  0.6256267534735471  0.8725472763213986  0.3768631102745772
  0.8698624573019131  0.6251883559519413  0.3758500714022546
  0.8752633959590241  0.8779990419053121  0.1229867813217354
  0.6230552553900495  0.6260421104612348  0.6247307755715852
  0.6249633014325937  0.8741382242609532  0.8750249809750912
  0.8773769321074596  0.6226510216776262  0.8752058778775478
  0.8716045951629781  0.8777576425573699  0.6256151796846297
  0.0010172180794754  0.0006576395036220  0.9957016903434308
  0.0051270704383484  0.2492041946508863  0.2477889763351868
  0.2517495755447499  0.0025970119310301  0.2486584309139062
  0.2487861626550369  0.2465838948638108  0.9998419341875859
  0.9991793365469235  0.0019624807814438  0.4983528732253291
  0.0020104701874715  0.2521211319992034  0.7485659935607316
  0.2501913153817910  0.0030030712200571  0.7518295304560070
  0.2484996762725729  0.2486712603178702  0.5032928287801326
  0.9988319008616813  0.4990448071065714  0.0017168369319975
  0.0013335024922441  0.7464553182675076  0.2466356290727063
  0.2551335740064644  0.4992936797016512  0.2478379063057616
  0.2495543815152175  0.7451513389141269  0.0058485679328157
  0.9997724566767516  0.5004255974971130  0.5015882903336646
  0.9991739600438265  0.7496052925415526  0.7499149646307330
  0.2466439953800545  0.5005753231141412  0.7499100290630096
  0.2477125739268686  0.7494782225306196  0.4979267848333180
  0.4982316442340462  0.9983959052823224  0.0015153771868199
  0.5018807190209813  0.2504217206063686  0.2500441494242764
  0.7531809357743171  0.9975432365559556  0.2511541838335845
  0.7541641118377100  0.2494044023405664  0.9960301451924423
  0.4999101382142257  0.0001374542562687  0.5008955477827186
  0.5002642390382874  0.2515271189508752  0.7519521759134520
  0.7545029918769330  0.0022598174254327  0.7541823428163283
  0.7514696720506535  0.2542575380407399  0.4999969838293055
  0.5011024523469985  0.4988098828016447  0.0031198865261075
  0.4981310306586764  0.7518664846647312  0.2488993382883322
  0.7528598539450115  0.4974444232100268  0.2500235049174080
  0.7480869913480177  0.7448695025464289  0.9956267851638572
  0.4981266121182131  0.4977965880108073  0.5027642999921511
  0.4992982907882251  0.7468679524816935  0.7519113258653789
  0.7519586428324914  0.5028543304430642  0.7505382428636196
  0.7514660542615914  0.7508977721488606  0.5016029467160195
 
  0.00000000E+00  0.00000000E+00  0.00000000E+00
  0.00000000E+00  0.00000000E+00  0.00000000E+00
  0.00000000E+00  0.00000000E+00  0.00000000E+00
  0.00000000E+00  0.00000000E+00  0.00000000E+00
  0.00000000E+00  0.00000000E+00  0.00000000E+00
  0.00000000E+00  0.00000000E+00  0.00000000E+00
  0.00000000E+00  0.00000000E+00  0.00000000E+00
  0.00000000E+00  0.00000000E+00  0.00000000E+00
  0.00000000E+00  0.00000000E+00  0.00000000E+00
  0.00000000E+00  0.00000000E+00  0.00000000E+00
  0.00000000E+00  0.00000000E+00  0.00000000E+00
  0.00000000E+00  0.00000000E+00  0.00000000E+00
  0.00000000E+00  0.00000000E+00  0.00000000E+00
  0.00000000E+00  0.00000000E+00  0.00000000E+00
  0.00000000E+00  0.00000000E+00  0.00000000E+00
  0.00000000E+00  0.00000000E+00  0.00000000E+00
  0.00000000E+00  0.00000000E+00  0.00000000E+00
  0.00000000E+00  0.00000000E+00  0.00000000E+00
  0.00000000E+00  0.00000000E+00  0.00000000E+00
  0.00000000E+00  0.00000000E+00  0.00000000E+00
  0.00000000E+00  0.00000000E+00  0.00000000E+00
  0.00000000E+00  0.00000000E+00  0.00000000E+00
  0.00000000E+00  0.00000000E+00  0.00000000E+00
  0.00000000E+00  0.00000000E+00  0.00000000E+00
  0.00000000E+00  0.00000000E+00  0.00000000E+00
  0.00000000E+00  0.00000000E+00  0.00000000E+00
  0.00000000E+00  0.00000000E+00  0.00000000E+00
  0.00000000E+00  0.00000000E+00  0.00000000E+00
  0.00000000E+00  0.00000000E+00  0.00000000E+00
  0.00000000E+00  0.00000000E+00  0.00000000E+00
  0.00000000E+00  0.00000000E+00  0.00000000E+00
  0.00000000E+00  0.00000000E+00  0.00000000E+00
  0.00000000E+00  0.00000000E+00  0.00000000E+00
  0.00000000E+00  0.00000000E+00  0.00000000E+00
  0.00000000E+00  0.00000000E+00  0.00000000E+00
  0.00000000E+00  0.00000000E+00  0.00000000E+00
  0.00000000E+00  0.00000000E+00  0.00000000E+00
  0.00000000E+00  0.00000000E+00  0.00000000E+00
  0.00000000E+00  0.00000000E+00  0.00000000E+00
  0.00000000E+00  0.00000000E+00  0.00000000E+00
  0.00000000E+00  0.00000000E+00  0.00000000E+00
  0.00000000E+00  0.00000000E+00  0.00000000E+00
  0.00000000E+00  0.00000000E+00  0.00000000E+00
  0.00000000E+00  0.00000000E+00  0.00000000E+00
  0.00000000E+00  0.00000000E+00  0.00000000E+00
  0.00000000E+00  0.00000000E+00  0.00000000E+00
  0.00000000E+00  0.00000000E+00  0.00000000E+00
  0.00000000E+00  0.00000000E+00  0.00000000E+00
  0.00000000E+00  0.00000000E+00  0.00000000E+00
  0.00000000E+00  0.00000000E+00  0.00000000E+00
  0.00000000E+00  0.00000000E+00  0.00000000E+00
  0.00000000E+00  0.00000000E+00  0.00000000E+00
  0.00000000E+00  0.00000000E+00  0.00000000E+00
  0.00000000E+00  0.00000000E+00  0.00000000E+00
  0.00000000E+00  0.00000000E+00  0.00000000E+00
  0.00000000E+00  0.00000000E+00  0.00000000E+00
  0.00000000E+00  0.00000000E+00  0.00000000E+00
  0.00000000E+00  0.00000000E+00  0.00000000E+00
  0.00000000E+00  0.00000000E+00  0.00000000E+00
  0.00000000E+00  0.00000000E+00  0.00000000E+00
  0.00000000E+00  0.00000000E+00  0.00000000E+00
  0.00000000E+00  0.00000000E+00  0.00000000E+00
  0.00000000E+00  0.00000000E+00  0.00000000E+00
  0.00000000E+00  0.00000000E+00  0.00000000E+00
