 C Si 
 1.0000000000000000
     8.7433155800000009    0.0000000000000000    0.0000000000000000
     0.0000000000000000    8.7433155800000009    0.0000000000000000
     0.0000000000000000    0.0000000000000000    8.7433155800000009
 C   Si 
  32  32
Cartesian
  1.0598042276442019  1.0660442318489658  1.0993931494636202
  1.0967959078180047  3.2601143896909228  3.2969225844277812
  3.2670748253048361  1.0853032371158493  3.2542935071857619
  3.2137634468718015  3.3080172572797486  1.1139997568166868
  1.1174555929613550  1.0807599172526166  5.4852411987789420
  1.0868135310786688  3.2660182756523111  7.6839248166155620
  3.2730948389303438  1.0966048010150202  7.6365327128557725
  3.2472851392165460  3.2625296467391043  5.4681677230957026
  1.1065647371357614  5.4537095419229216  1.0651814340898775
  1.1128044958755794  7.6393638776204700  3.2689326507689689
  3.3055191844583645  5.4451959420538971  3.2947090387885072
  3.2925872901890756  7.6699560324543059  1.1038640469595296
  1.0860616398337684  5.4626174514300043  5.4589424797740840
  1.1303011628799349  7.6565744747019835  7.6972657133273676
  3.2755248538909605  5.4920036152114804  7.6373824730951752
  3.2975170272271868  7.6520404341152988  5.4816166384265470
  5.4657746893858770  1.0968985350623368  1.1120633819707502
  5.4465359111164684  3.2580066229858500  3.2667511776565279
  7.6462174745313041  1.0755382269560223  3.2961936084484345
  7.6840908852842755  3.3020792375596675  1.1108306149202898
  5.4601689029779372  1.0993218783523220  5.4687304975312907
  5.4414785847447442  3.3191818525456416  7.6058501936050691
  7.6757024904116697  1.1134433649505677  7.6802744250545407
  7.6426840383850667  3.2612241644277646  5.4404316062631706
  5.4725030673703285  5.4819363467697588  1.0756638447490248
  5.4700521409101146  7.6289561953474765  3.2950331035909950
  7.6054819753848788  5.4662190930291992  3.2861757850354745
  7.6527040864922178  7.6766227023158029  1.0753122412643770
  5.4475687216527131  5.4736837381317809  5.4622183233605091
  5.4642513703438551  7.6428663552543403  7.6506195490486997
  7.6711834000277452  5.4440343787369034  7.6522011877543399
  7.6207140364880672  7.6745120716359425  5.4699509476210997
  0.0088938586825573  0.0057499497180151 -0.0375814777879341
  0.0448275948433503  2.1788709176924486  2.1664972173436703
  2.2011259861187833  0.0227064948780184  2.1740991331078878
  2.1752159320301896  2.1559608097398635 -0.0013820192803566
 -0.0071753195552383  0.0171585887918464  4.3572564408088024
  0.0175781753132710  2.2043746214558624  6.5449487141577061
  2.1875016257583226  0.0262567993861680  6.5734828471401139
  2.1727110911789631  2.1742113046354921  4.4004480311756007
 -0.0102130593950321  4.3633062370929885  0.0150108470958743
  0.0116592331164292  6.5264944139821299  2.1564131382544711
  2.2307133525917853  4.3654822087309535  2.1669250275177245
  2.1819327119592722  6.5150933109857307  0.0511358751277009
 -0.0019894830833109  4.3753789232273208  4.3855447136198800
 -0.0072223280185039  6.5540356331290299  6.5567431939310081
  2.1564862875198689  4.3766880215474071  6.5567000407048424
  2.1658292069766900  6.5529246199227025  4.3535310155324449
  4.3561964974805560 -0.0140251063368764  0.0132494209670855
  4.3881015099177549  2.1895161313480855  2.1862149073491075
  6.5852986103145410 -0.0214802580966634  2.1959202884943938
  6.5938948289074979  2.1806213967048418 -0.0347096933892790
  4.3708721000483992  0.0012018059403556  4.3794878468812835
  4.3739681153002978  2.1991809779156841  6.5745551750789630
  6.5968577640341879  0.0197582969037653  6.5940542281068959
  6.5703364915379456  2.2230538936840567  4.3716314186677980
  4.3812968787817335  4.3612522197575752  0.0272781524715479
  4.3553168012394714  6.5738059494489889  2.1762054623080744
  6.5824912905539561  4.3493135756363408  2.1860344059106103
  6.5407606466484562  6.5126291266810297 -0.0382363974115374
  4.3552781685457758  4.3523926636257277  4.3958269371891863
  4.3655225249160878  6.5301022051359130  6.5741980102172359
  6.5746117173929894  4.3966141018333378  6.5621927122153032
  6.5703048600665186  6.5653361902164340  4.3856728589960534
