 C Si                                   
   1.00000000000000     
     8.7433155800000009    0.0000000000000000    0.0000000000000000
     0.0000000000000000    8.7433155800000009    0.0000000000000000
     0.0000000000000000    0.0000000000000000    8.7433155800000009
   C    Si
    32    32
Direct
  0.1218630818452624  0.1258910728527027  0.1219942704291626
  0.1281183504661598  0.3768188573459526  0.3759296972131452
  0.3790752476748978  0.1265206326261392  0.3785725123861710
  0.3747382963986325  0.3737470422941698  0.1248918806684003
  0.1255577101551992  0.1205232876832554  0.6290102472179058
  0.1247355467705660  0.3762249801591651  0.8736173077602984
  0.3748899723065264  0.1218259242752282  0.8754676251234841
  0.3748239274301426  0.3723202829591656  0.6245518143684805
  0.1242367300891871  0.6253469740116842  0.1251723057992109
  0.1255727187448628  0.8727664795863603  0.3797864242645375
  0.3724209270443382  0.6209430900288524  0.3717233523597372
  0.3751965185440156  0.8766277203967121  0.1229988494884751
  0.1256637621649048  0.6246239506919196  0.6264400126132088
  0.1251452787457623  0.8775560870917047  0.8736846040133273
  0.3769957787610068  0.6205159668594789  0.8725456643272693
  0.3793582297946330  0.8798665143910185  0.6242378832478721
  0.6225727777166625  0.1220432077119966  0.1249738315373108
  0.6244121501142956  0.3758890780217570  0.3761280887728091
  0.8775342236371344  0.1225376829116200  0.3764195658308296
  0.8722190855766385  0.3736085090263472  0.1254757542379110
  0.6231967943555148  0.1235112995967640  0.6246693194383326
  0.6228556636438256  0.3731770275232904  0.8729348553013310
  0.8754884531744054  0.1244096623398576  0.8749688488330492
  0.8755558404381958  0.3790729707325937  0.6257768305242450
  0.6263926858593791  0.6240829159717336  0.1239651746602490
  0.6248428115257170  0.8773507626713695  0.3771685105229849
  0.8781826703220901  0.6243397308355227  0.3752288595468727
  0.8757476954223264  0.8734704757340594  0.1242454768240862
  0.6257383211620677  0.6211918435160584  0.6253447761332822
  0.6259984614083791  0.8750682617078525  0.8755811003121394
  0.8774490120329617  0.6265775309094650  0.8777286019467354
  0.8752028492884421  0.8774183295107179  0.6240562869056063
  0.0003641861024661  0.9997895651512110  0.0036437036472847
  0.9958586215180816  0.2506187829025848  0.2516627792079973
  0.2506855728016006  0.9985090150521501  0.2520820032735003
  0.2492362898867881  0.2474477486581890  0.0044462411822650
  0.0042588579791456  0.0044904535566204  0.4987221299522844
  0.9960925369775779  0.2477224437378212  0.7481372902864365
  0.2475503751079131  0.9977803628146233  0.7476423596302340
  0.2486052150015396  0.2505798508471528  0.5007129484465409
  0.0037574743536908  0.4981916055315168  0.0032251775509238
  0.0014556556190257  0.7509404156187500  0.2519488572259974
  0.2497912445145332  0.5013203866697751  0.2524687925243967
  0.2491701957971841  0.7480477496658651  0.9983282878367632
  0.9984076333505172  0.4990271311952696  0.4971619197276311
  0.9967308497411125  0.7487978750124924  0.7496281492256642
  0.2483817504532624  0.5011133126300678  0.7492240045074823
  0.2488737115155644  0.7494097946356391  0.4964113562670747
  0.5030411712138019  0.9993329603473740  0.9969327512145512
  0.4991570113981609  0.2554410680966157  0.2494750885118009
  0.7471580220335099  0.9956590578624684  0.2529819227276491
  0.7508036254093255  0.2517696595863939  0.0027121296668895
  0.4956430772999525  0.9967397096303046  0.4999482009260348
  0.4981434882535964  0.2516342683297808  0.7455231302304171
  0.7473276487813791  0.9996285442099975  0.7500438636632083
  0.7498129315302577  0.2509387581658800  0.4993546911654647
  0.4971650376785206  0.5010619860343013  0.9974565594756015
  0.5023135082252992  0.7489029955879687  0.2510083402303493
  0.7462403773142583  0.4998109068456600  0.2504698993454966
  0.7484098687608025  0.7487925105518372  0.9998547017899355
  0.5009993169349016  0.5001513058833496  0.5027820311065767
  0.4994256735302045  0.7456201028025689  0.7525536397247521
  0.7520497215377588  0.5002443314890712  0.7523933941441356
  0.7471721262659656  0.7498522334305875  0.5018112255631877
 
  0.00000000E+00  0.00000000E+00  0.00000000E+00
  0.00000000E+00  0.00000000E+00  0.00000000E+00
  0.00000000E+00  0.00000000E+00  0.00000000E+00
  0.00000000E+00  0.00000000E+00  0.00000000E+00
  0.00000000E+00  0.00000000E+00  0.00000000E+00
  0.00000000E+00  0.00000000E+00  0.00000000E+00
  0.00000000E+00  0.00000000E+00  0.00000000E+00
  0.00000000E+00  0.00000000E+00  0.00000000E+00
  0.00000000E+00  0.00000000E+00  0.00000000E+00
  0.00000000E+00  0.00000000E+00  0.00000000E+00
  0.00000000E+00  0.00000000E+00  0.00000000E+00
  0.00000000E+00  0.00000000E+00  0.00000000E+00
  0.00000000E+00  0.00000000E+00  0.00000000E+00
  0.00000000E+00  0.00000000E+00  0.00000000E+00
  0.00000000E+00  0.00000000E+00  0.00000000E+00
  0.00000000E+00  0.00000000E+00  0.00000000E+00
  0.00000000E+00  0.00000000E+00  0.00000000E+00
  0.00000000E+00  0.00000000E+00  0.00000000E+00
  0.00000000E+00  0.00000000E+00  0.00000000E+00
  0.00000000E+00  0.00000000E+00  0.00000000E+00
  0.00000000E+00  0.00000000E+00  0.00000000E+00
  0.00000000E+00  0.00000000E+00  0.00000000E+00
  0.00000000E+00  0.00000000E+00  0.00000000E+00
  0.00000000E+00  0.00000000E+00  0.00000000E+00
  0.00000000E+00  0.00000000E+00  0.00000000E+00
  0.00000000E+00  0.00000000E+00  0.00000000E+00
  0.00000000E+00  0.00000000E+00  0.00000000E+00
  0.00000000E+00  0.00000000E+00  0.00000000E+00
  0.00000000E+00  0.00000000E+00  0.00000000E+00
  0.00000000E+00  0.00000000E+00  0.00000000E+00
  0.00000000E+00  0.00000000E+00  0.00000000E+00
  0.00000000E+00  0.00000000E+00  0.00000000E+00
  0.00000000E+00  0.00000000E+00  0.00000000E+00
  0.00000000E+00  0.00000000E+00  0.00000000E+00
  0.00000000E+00  0.00000000E+00  0.00000000E+00
  0.00000000E+00  0.00000000E+00  0.00000000E+00
  0.00000000E+00  0.00000000E+00  0.00000000E+00
  0.00000000E+00  0.00000000E+00  0.00000000E+00
  0.00000000E+00  0.00000000E+00  0.00000000E+00
  0.00000000E+00  0.00000000E+00  0.00000000E+00
  0.00000000E+00  0.00000000E+00  0.00000000E+00
  0.00000000E+00  0.00000000E+00  0.00000000E+00
  0.00000000E+00  0.00000000E+00  0.00000000E+00
  0.00000000E+00  0.00000000E+00  0.00000000E+00
  0.00000000E+00  0.00000000E+00  0.00000000E+00
  0.00000000E+00  0.00000000E+00  0.00000000E+00
  0.00000000E+00  0.00000000E+00  0.00000000E+00
  0.00000000E+00  0.00000000E+00  0.00000000E+00
  0.00000000E+00  0.00000000E+00  0.00000000E+00
  0.00000000E+00  0.00000000E+00  0.00000000E+00
  0.00000000E+00  0.00000000E+00  0.00000000E+00
  0.00000000E+00  0.00000000E+00  0.00000000E+00
  0.00000000E+00  0.00000000E+00  0.00000000E+00
  0.00000000E+00  0.00000000E+00  0.00000000E+00
  0.00000000E+00  0.00000000E+00  0.00000000E+00
  0.00000000E+00  0.00000000E+00  0.00000000E+00
  0.00000000E+00  0.00000000E+00  0.00000000E+00
  0.00000000E+00  0.00000000E+00  0.00000000E+00
  0.00000000E+00  0.00000000E+00  0.00000000E+00
  0.00000000E+00  0.00000000E+00  0.00000000E+00
  0.00000000E+00  0.00000000E+00  0.00000000E+00
  0.00000000E+00  0.00000000E+00  0.00000000E+00
  0.00000000E+00  0.00000000E+00  0.00000000E+00
  0.00000000E+00  0.00000000E+00  0.00000000E+00
