 C Si 
 1.0000000000000000
     8.7433155800000009    0.0000000000000000    0.0000000000000000
     0.0000000000000000    8.7433155800000009    0.0000000000000000
     0.0000000000000000    0.0000000000000000    8.7433155800000009
 C   Si 
  32  32
Cartesian
  1.0654873821244966  1.1007053786559444  1.0666344053140242
  1.1201791697147057  3.2946461862706595  3.2868719786283926
  3.3143745189883105  1.1062098184316007  3.3099789457057649
  3.2764551853248398  3.2677883378695118  1.0919691260634941
  1.0977906833890749  1.0537731389538572  5.4996350944799426
  1.0906022494588870  3.2894537306107945  7.6383118178982778
  3.2777813356534158  1.0651625017634783  7.6544897265277783
  3.2772038844567666  3.2553137307468618  5.4606536090852318
  1.0862409377970341  5.4676059407822324  1.0944209714787458
  1.0979219082249436  7.6308727586692058  3.3205925603445992
  3.2561936937448253  5.4291013933426058  3.2500945781367228
  3.2804615661476317  7.6646328056044792  1.0754177570546624
  1.0987179295777991  5.4612843197258290  5.4771627222164447
  1.0941846654212415  7.6727498085927435  7.6389002102758727
  3.2961930660353294  5.4253669206812400  7.6289421011740597
  3.3168487209646571  7.6929506035953139  5.4579088102273587
  5.4433502670939955  1.0670622794214604  1.0926856483724645
  5.4594324804356171  3.2865168322194562  3.2886065786429453
  7.6725586495097833  1.0713856321382365  3.2911550545455106
  7.6260867200955822  3.2665770977906496  1.0970741169405505
  5.4488062414946086  1.0798982700704600  5.4616809929931458
  5.4458236280283030  3.2628045188425001  7.6323449206811880
  7.6546718327498589  1.0877529390386318  7.6501287680166703
  7.6552610208632634  3.3143546109631559  5.4713643119256243
  5.4767489294723317  5.4565538824275199  1.0838666429843735
  5.4631978890637845  7.6709545923894469  3.2977033143410095
  7.6782282235131323  5.4587992958272373  3.2807443337417794
  7.6569384695351479  7.6370280191556201  1.0863174132605851
  5.4710276124193591  5.4312763235828951  5.4675867240377345
  5.4733021006878868  7.6509979661537839  7.6554818759127015
  7.6718136175633811  5.4783650880786565  7.6742581604124984
  7.6521747078440550  7.6715453505886275  5.4563210560987443
  0.0031841940236847 -0.0018398982919789  0.0318580508681866
 -0.0362093790036045  2.1912391091928276  2.2003670983553580
  2.1918230743574720 -0.0130361519241110  2.2040325066588173
  2.1791515364685621  2.1635137560790434  0.0388748898013475
  0.0372365393220965  0.0392614525428920  4.3604849689025915
 -0.0341641823221980  2.1659155018485441  6.5412004261403718
  2.1644110515158772 -0.0194069883848769  6.5368730912229642
  2.1736338495922061  2.1908987139459870  4.3778913232603793
  0.0328527840580927  4.3558464264689096  0.0281987451292891
  0.0127272564529503  6.5657090355310714  2.2028683687472892
  2.1840036799115068  4.3832023473414861  2.2074143271423723
  2.1785736549851813  6.5404175442375232 -0.0146163070021187
 -0.0139225641354823  4.3631516910222778  4.3468435585373149
 -0.0285832123918740  6.5469761268675928  6.5542354763313444
  2.1716800285256577  4.3813918336639128  6.5507019115202860
  2.1759813993464663  6.5523263332423713  4.3402811453388308
  4.3982477096550587 -0.0058321381872904 -0.0268179240935697
  4.3642872746237966  2.2334018704609613  2.1812394282070859
  6.5326383747675667 -0.0379542270229770  2.2119007864429947
  6.5645130355618484  2.2013015872330106  0.0237130055714944
  4.3335638398758407 -0.0285057475846681  4.3712048943495567
  4.3554257219232344  2.2001178187496695  6.5183439997939976
  6.5341214749550103 -0.0032477551960158  6.5578701988499173
  6.5558510863339796  2.1940367538975827  4.3660156512130781
  4.3468708197659023  4.3809430690394304 -0.0222381031637930
  4.3918855225107079  6.5478952292329655  2.1946451318459759
  6.5246151173968032  4.3700044888776164  2.1899373732684939
  6.5435836657620685  6.5469292236951633 -0.0012703881037834
  4.3803951333262559  4.3729807050872207  4.3959819659181516
  4.3666362724286589  6.5191918615949023  6.5798139629911487
  6.5754080472557517  4.3737940573150720  6.5784128853095023
  6.5327616925229535  6.5561947152514346  4.3874939066854957
