 C Si                                   
   1.00000000000000     
     8.7433155800000009    0.0000000000000000    0.0000000000000000
     0.0000000000000000    8.7433155800000009    0.0000000000000000
     0.0000000000000000    0.0000000000000000    8.7433155800000009
   C    Si
    32    32
Direct
  0.1259722950322768  0.1241910198839591  0.1223431948356435
  0.1236149765236902  0.3776986544828702  0.3747574884607516
  0.3756621999565155  0.1230318556485486  0.3742714239670235
  0.3726934629629497  0.3761685628489957  0.1286236143366821
  0.1214830240657605  0.1235880124582991  0.6238016759126097
  0.1261310708118017  0.3722206260063388  0.8776234537709584
  0.3756138286764070  0.1246721315777890  0.8717663223099450
  0.3763251078321872  0.3735896864174535  0.6263916435955608
  0.1229024654374911  0.6290630431286388  0.1243674539553794
  0.1267547243866716  0.8719289152054941  0.3785449189707322
  0.3759642073872413  0.6250781849934341  0.3769232496192956
  0.3766455677042444  0.8728488725842567  0.1276812079838905
  0.1256206396902542  0.6233909425346624  0.6266035677731097
  0.1260754108256350  0.8752484114009604  0.8739191225039633
  0.3736649618272239  0.6251589236772261  0.8767617877155658
  0.3746903184536023  0.8754946460387671  0.6255978504162911
  0.6277344841928567  0.1255243541641420  0.1253417136923787
  0.6249896570990501  0.3724360095171235  0.3802431494542020
  0.8723493272778242  0.1257580081223963  0.3787760941855183
  0.8753386640019656  0.3756001548902006  0.1237089380287983
  0.6267457293263732  0.1242978294819110  0.6247099675981218
  0.6283049342538405  0.3724919355312508  0.8738460522087763
  0.8750223975042886  0.1251849476852414  0.8748525032334555
  0.8759347898599401  0.3745730368543434  0.6259239758398394
  0.6305458310549810  0.6285923447729616  0.1238424349395473
  0.6272236126008011  0.8741889971966330  0.3752813032527200
  0.8729764154545734  0.6266458788661495  0.3780547234464464
  0.8784126971607904  0.8754885095055798  0.1213612161675783
  0.6250338318397155  0.6253755744108460  0.6214886466246412
  0.6252535042617495  0.8776495898541015  0.8741467764446043
  0.8740450163207854  0.6246863240575493  0.8724919838749372
  0.8771413259685303  0.8755461521025083  0.6287137175325483
  0.0020083554125208  0.9996747812236180  0.9977662866558745
  0.0026605447402659  0.2475773068076705  0.2497480497878044
  0.2512209373704906  0.9968868522741161  0.2476503879735006
  0.2460486817903345  0.2513396819257139  0.9990740814608756
  0.9969020676293070  0.0039094075157209  0.5005938546587032
  0.0008129211264318  0.2507799803582174  0.7506903486681722
  0.2470220466864532  0.9987230288793683  0.7508723042272862
  0.2457937636464251  0.2502883482119316  0.4998765166198922
  0.9998445519971355  0.5026319830805122  0.9975579079448522
  0.9987331707854565  0.7456517981873318  0.2527859508727559
  0.2475546920243517  0.5021650951953518  0.2503849893842514
  0.2492119761388096  0.7484826540821459  0.9988720729709826
  0.9985188524833077  0.5008665367859990  0.5024037944237847
  0.0014389900683085  0.7504756820531640  0.7479490776534448
  0.2455147277598400  0.5039773372512144  0.7517157233584513
  0.2498100859814727  0.7506736518325994  0.4985909481857220
  0.5009139509108493  0.0012010751426317  0.9994971282181879
  0.5019710030221987  0.2550389077160702  0.2494906914129729
  0.7468087500982463  0.9987837624178653  0.2505559784841225
  0.7511585067841651  0.2507208670134915  0.0044920829796098
  0.5026757291650910  0.0013072958490454  0.4990612713785936
  0.4999504735128824  0.2510474974487025  0.7483466157195195
  0.7513168958284666  0.9982449224436110  0.7493748531994129
  0.7463840437969580  0.2502226822175189  0.5000158419797742
  0.4984423046581696  0.5027439752136189  0.0027483445088734
  0.5005486169835578  0.7503614319884306  0.2499820085875797
  0.7498465193226167  0.4997449459514272  0.2517895761939712
  0.7474331186382273  0.7518811291767094  0.0027852168783014
  0.5042711964866413  0.5013003153473718  0.5023127474167524
  0.4970084664113017  0.7518786001735549  0.7514754766005254
  0.7464688131713757  0.4992519193801144  0.7453307692075484
  0.7496130022195615  0.7496037562242037  0.5006342711410099
 
  0.00000000E+00  0.00000000E+00  0.00000000E+00
  0.00000000E+00  0.00000000E+00  0.00000000E+00
  0.00000000E+00  0.00000000E+00  0.00000000E+00
  0.00000000E+00  0.00000000E+00  0.00000000E+00
  0.00000000E+00  0.00000000E+00  0.00000000E+00
  0.00000000E+00  0.00000000E+00  0.00000000E+00
  0.00000000E+00  0.00000000E+00  0.00000000E+00
  0.00000000E+00  0.00000000E+00  0.00000000E+00
  0.00000000E+00  0.00000000E+00  0.00000000E+00
  0.00000000E+00  0.00000000E+00  0.00000000E+00
  0.00000000E+00  0.00000000E+00  0.00000000E+00
  0.00000000E+00  0.00000000E+00  0.00000000E+00
  0.00000000E+00  0.00000000E+00  0.00000000E+00
  0.00000000E+00  0.00000000E+00  0.00000000E+00
  0.00000000E+00  0.00000000E+00  0.00000000E+00
  0.00000000E+00  0.00000000E+00  0.00000000E+00
  0.00000000E+00  0.00000000E+00  0.00000000E+00
  0.00000000E+00  0.00000000E+00  0.00000000E+00
  0.00000000E+00  0.00000000E+00  0.00000000E+00
  0.00000000E+00  0.00000000E+00  0.00000000E+00
  0.00000000E+00  0.00000000E+00  0.00000000E+00
  0.00000000E+00  0.00000000E+00  0.00000000E+00
  0.00000000E+00  0.00000000E+00  0.00000000E+00
  0.00000000E+00  0.00000000E+00  0.00000000E+00
  0.00000000E+00  0.00000000E+00  0.00000000E+00
  0.00000000E+00  0.00000000E+00  0.00000000E+00
  0.00000000E+00  0.00000000E+00  0.00000000E+00
  0.00000000E+00  0.00000000E+00  0.00000000E+00
  0.00000000E+00  0.00000000E+00  0.00000000E+00
  0.00000000E+00  0.00000000E+00  0.00000000E+00
  0.00000000E+00  0.00000000E+00  0.00000000E+00
  0.00000000E+00  0.00000000E+00  0.00000000E+00
  0.00000000E+00  0.00000000E+00  0.00000000E+00
  0.00000000E+00  0.00000000E+00  0.00000000E+00
  0.00000000E+00  0.00000000E+00  0.00000000E+00
  0.00000000E+00  0.00000000E+00  0.00000000E+00
  0.00000000E+00  0.00000000E+00  0.00000000E+00
  0.00000000E+00  0.00000000E+00  0.00000000E+00
  0.00000000E+00  0.00000000E+00  0.00000000E+00
  0.00000000E+00  0.00000000E+00  0.00000000E+00
  0.00000000E+00  0.00000000E+00  0.00000000E+00
  0.00000000E+00  0.00000000E+00  0.00000000E+00
  0.00000000E+00  0.00000000E+00  0.00000000E+00
  0.00000000E+00  0.00000000E+00  0.00000000E+00
  0.00000000E+00  0.00000000E+00  0.00000000E+00
  0.00000000E+00  0.00000000E+00  0.00000000E+00
  0.00000000E+00  0.00000000E+00  0.00000000E+00
  0.00000000E+00  0.00000000E+00  0.00000000E+00
  0.00000000E+00  0.00000000E+00  0.00000000E+00
  0.00000000E+00  0.00000000E+00  0.00000000E+00
  0.00000000E+00  0.00000000E+00  0.00000000E+00
  0.00000000E+00  0.00000000E+00  0.00000000E+00
  0.00000000E+00  0.00000000E+00  0.00000000E+00
  0.00000000E+00  0.00000000E+00  0.00000000E+00
  0.00000000E+00  0.00000000E+00  0.00000000E+00
  0.00000000E+00  0.00000000E+00  0.00000000E+00
  0.00000000E+00  0.00000000E+00  0.00000000E+00
  0.00000000E+00  0.00000000E+00  0.00000000E+00
  0.00000000E+00  0.00000000E+00  0.00000000E+00
  0.00000000E+00  0.00000000E+00  0.00000000E+00
  0.00000000E+00  0.00000000E+00  0.00000000E+00
  0.00000000E+00  0.00000000E+00  0.00000000E+00
  0.00000000E+00  0.00000000E+00  0.00000000E+00
  0.00000000E+00  0.00000000E+00  0.00000000E+00
