 C Si 
 1.0000000000000000
     8.7433155800000009    0.0000000000000000    0.0000000000000000
     0.0000000000000000    8.7433155800000009    0.0000000000000000
     0.0000000000000000    0.0000000000000000    8.7433155800000009
 C   Si 
  32  32
Cartesian
  1.1014155298040480  1.0858412790474872  1.0696851615134420
  1.0808047501609248  3.3023385302851072  3.2766229875805881
  3.2845331656968511  1.0757063403282767  3.2723731723196847
  3.2585765612881183  3.2889604562638075  1.1245968511857982
  1.0621644170196780  1.0805689948279087  5.4540949118368287
  1.1028037565509312  3.2544423985585893  7.6733388167290473
  3.2841102403298605  1.0900477904158801  7.6221280679718335
  3.2903291784543427  3.2664125257810053  5.4767398166308761
  1.0745750408800261  5.5000967057888355  1.0873838978130015
  1.1082565565685838  7.6235496689687139  3.3097376877666247
  3.2871737119712217  5.4652558335712076  3.2955589208606062
  3.2931310602464463  7.6315931466513431  1.1163570950387944
  1.0983408961733481  5.4505037402941960  5.4785927365942406
  1.1023171037266808  7.6525730717722542  7.6409506794488351
  3.2670706824440483  5.4659617573631367  7.6658049984821632
  3.2760356990105661  7.6547259789173312  5.4697994323592889
  5.4884806957466941  1.0974990414327606  1.0959021581505020
  5.4644818062529579  3.2563255645641083  3.3245858528112042
  7.6272254643906994  1.0995419517263181  3.3117589256238116
  7.6533621787447865  3.2839906861018986  1.0816262852524745
  5.4798356999177669  1.0867751490693638  5.4620363926819442
  5.4934683206524717  3.2568145433547193  7.6403118027984931
  7.6505969609482216  1.0945315034778662  7.6491115217230696
  7.6585742952464235  3.2750102689764802  5.4726508498560085
  5.5130611885670477  5.4959812415221805  1.0827934908720593
  5.4840139841964648  7.6433102790538987  3.2812028656122232
  7.6327082942165037  5.4789626758332153  3.3054517536019223
  7.6802394207557532  7.6546723252711288  1.0610994121257458
  5.4648680399512664  5.4678560030978245  5.4338713668263523
  5.4667887052613748  7.6735673327519853  7.6429411296949077
  7.6420514088188760  5.4618296697453168  7.6284727560388479
  7.6691234212025066  7.6551763126869350  5.4970424418620354
  0.0175596851684401 -0.0028434903944474 -0.0195300606829588
  0.0232619822788604  2.1646465238659527  2.1836260147843096
  2.1965039357336051 -0.0272192330145623  2.1652854955617271
  2.1512812729358859  2.1975421568533320 -0.0080955979889570
 -0.0270862003624466  0.0341811836407423  4.3768500486896835
  0.0071076259500181  2.1926485094180892  6.5635226212660776
  2.1597917093971426 -0.0111649614942144  6.5651135161409053
  2.1490524431566347  2.1883500144138446  4.3705781358388496
 -0.0013591309453021  4.3946700486741399 -0.0213519815135789
 -0.0110762876086900  6.5194689843463447  2.2101873426708982
  2.1644487956786271  4.3905879005537241  2.1891949786814542
  2.1789389536970161  6.5442200507961843 -0.0098618219659147
 -0.0129501401589429  4.3792341945816418  4.3926749232366040
  0.0125815442836850  6.5616457233065351  6.5395548236940106
  2.1466127443420548  4.4064329047554578  6.5724877957708872
  2.1841684168029256  6.5633766355634497  4.3593380053192181
  4.3796487512381903  0.0105013790073413 -0.0043967666846551
  4.3888908914322178  2.2298856553401030  2.1813758492960149
  6.5295845800143280 -0.0106339490008643  2.1906899903423454
  6.5676158754155560  2.1921316627901803  0.0392756991022718
  4.3950525344969984  0.0114301001646269  4.3634501894190398
  4.3712247642935909  2.1949874957632662  6.5430306244607666
  6.5690007208142500 -0.0153451969428592  6.5520208292386375
  6.5258712387933207  2.1877758759018375  4.3717963014285477
  4.3580383680488568  4.3956492312363498  0.0240296433636138
  4.3764545214198236  6.5606467989355730  2.1856715904034609
  6.5561447550022018  4.3694277719633741  2.2014757244183696
  6.5350436311975866  6.5739339910387411  0.0243520301257209
  4.4090022087869025  4.3830268574355973  4.3918788705214933
  4.3455018677658108  6.5739118791660056  6.5703872425492955
  6.5266124041853972  4.3651170850610734  6.5166621266657687
  6.5541030412768775  6.5540222006215947  4.3772034227491412
