 C Si                                   
   1.00000000000000     
     8.7433155800000009    0.0000000000000000    0.0000000000000000
     0.0000000000000000    8.7433155800000009    0.0000000000000000
     0.0000000000000000    0.0000000000000000    8.7433155800000009
   C    Si
    32    32
Direct
  0.1302061662628802  0.1250734282359645  0.1223691238223523
  0.1274335092252983  0.3802825758939932  0.3804570479408724
  0.3717543818919751  0.1261141343648760  0.3685271758461397
  0.3799243834411001  0.3781554435095060  0.1208666036025150
  0.1252082144664612  0.1222108093561474  0.6258031590686741
  0.1202804696329665  0.3744106008559314  0.8816956282125901
  0.3816527619989074  0.1263497750821685  0.8753373927106267
  0.3769068963779176  0.3766530969736124  0.6240678959388291
  0.1200387242472942  0.6286051480503687  0.1292570436241789
  0.1229953363776133  0.8799319433477848  0.3769279242473331
  0.3698545216522220  0.6317336174164367  0.3778439338752762
  0.3758183851133694  0.8755948141228629  0.1144520446707915
  0.1292056968325355  0.6235615939953121  0.6149858592846797
  0.1282857872693270  0.8689547051100348  0.8774035602023105
  0.3706157947292823  0.6266010972013518  0.8753679801735572
  0.3788513624109342  0.8737485446776390  0.6229614635261598
  0.6227615121576306  0.1258306670626510  0.1270565883409631
  0.6171789224422639  0.3756773195405785  0.3731711449589454
  0.8703281812284231  0.1139914030866436  0.3829884527747183
  0.8830730580643262  0.3705155583592514  0.1213153588700422
  0.6299038242504125  0.1277732818653803  0.6258978890833333
  0.6202679758203686  0.3777002029753973  0.8752882281727565
  0.8859448361962379  0.1270776511596878  0.8823338790730162
  0.8735951835947233  0.3746298679747966  0.6252884609590126
  0.6264833506265717  0.6317269014371547  0.1263356227695667
  0.6331314602919704  0.8810908379955720  0.3718471398852969
  0.8773042140424536  0.6254531621478208  0.3781600860889185
  0.8727842952082554  0.8741120904352897  0.1211905581162256
  0.6336950200767433  0.6224656831431545  0.6211133612118047
  0.6333692349050111  0.8714161684312316  0.8774768571662932
  0.8774669540225020  0.6269179287991378  0.8787090737435577
  0.8747572028279649  0.8802214606866343  0.6165160702660089
  0.9948938267006611  0.0066625168344672  0.9953345504056017
  0.9994125923204464  0.2436479308028510  0.2566138614292157
  0.2475131111304023  0.9994842881891657  0.2491098002454208
  0.2542677499432102  0.2515507361705787  0.9978397398911554
  0.9959822855816540  0.0038125434525753  0.4954060919085208
  0.9970767427541674  0.2473360965234690  0.7461622447489731
  0.2556851977212631  0.0002017262777088  0.7565899690353959
  0.2465976341070970  0.2512755354655241  0.5046800803592788
  0.9933216992253264  0.4945242535321341  0.0020372773750239
  0.9943549223283554  0.7497431204577936  0.2514697649385411
  0.2479722519861483  0.5056152053158698  0.2482146078648881
  0.2475024546506717  0.7516914937222126  0.9967048819594737
  0.9957392662078774  0.5027299341814242  0.5001177317578609
  0.9912297614258492  0.7490062003019631  0.7507817446620848
  0.2509623173482396  0.5054326887366258  0.7510367443490580
  0.2453893362912964  0.7480742745351066  0.4974077060070172
  0.4930726048803535  0.0001353817944221  0.0025315776106396
  0.5039938974769882  0.2542608410088576  0.2503692562724424
  0.7400536289096209  0.0002073303500723  0.2422927293182795
  0.7456499728029513  0.2395882294885965  0.9985181547728814
  0.4970817763488000  0.9992756237104885  0.4987869059932279
  0.4957812957968741  0.2431314111269245  0.7453621675263875
  0.7522266664743142  0.0056249693434651  0.7386627349419541
  0.7508676414344180  0.2468204847328792  0.4983870306524878
  0.4987500290384332  0.5001102283286869  0.9971979259263790
  0.5016364322602413  0.7454940213236867  0.2484350469121566
  0.7502725930918928  0.5061948335862638  0.2489893252669830
  0.7569249789517229  0.7508414739135461  0.0009675530573148
  0.5052704145997993  0.5016954524706705  0.4990755930097919
  0.5058188434038939  0.7457747872538505  0.7469911625964016
  0.7585538622578625  0.5122574804660616  0.7514060367790307
  0.7466228633961620  0.7493601293429606  0.5025869445728688
 
  0.00000000E+00  0.00000000E+00  0.00000000E+00
  0.00000000E+00  0.00000000E+00  0.00000000E+00
  0.00000000E+00  0.00000000E+00  0.00000000E+00
  0.00000000E+00  0.00000000E+00  0.00000000E+00
  0.00000000E+00  0.00000000E+00  0.00000000E+00
  0.00000000E+00  0.00000000E+00  0.00000000E+00
  0.00000000E+00  0.00000000E+00  0.00000000E+00
  0.00000000E+00  0.00000000E+00  0.00000000E+00
  0.00000000E+00  0.00000000E+00  0.00000000E+00
  0.00000000E+00  0.00000000E+00  0.00000000E+00
  0.00000000E+00  0.00000000E+00  0.00000000E+00
  0.00000000E+00  0.00000000E+00  0.00000000E+00
  0.00000000E+00  0.00000000E+00  0.00000000E+00
  0.00000000E+00  0.00000000E+00  0.00000000E+00
  0.00000000E+00  0.00000000E+00  0.00000000E+00
  0.00000000E+00  0.00000000E+00  0.00000000E+00
  0.00000000E+00  0.00000000E+00  0.00000000E+00
  0.00000000E+00  0.00000000E+00  0.00000000E+00
  0.00000000E+00  0.00000000E+00  0.00000000E+00
  0.00000000E+00  0.00000000E+00  0.00000000E+00
  0.00000000E+00  0.00000000E+00  0.00000000E+00
  0.00000000E+00  0.00000000E+00  0.00000000E+00
  0.00000000E+00  0.00000000E+00  0.00000000E+00
  0.00000000E+00  0.00000000E+00  0.00000000E+00
  0.00000000E+00  0.00000000E+00  0.00000000E+00
  0.00000000E+00  0.00000000E+00  0.00000000E+00
  0.00000000E+00  0.00000000E+00  0.00000000E+00
  0.00000000E+00  0.00000000E+00  0.00000000E+00
  0.00000000E+00  0.00000000E+00  0.00000000E+00
  0.00000000E+00  0.00000000E+00  0.00000000E+00
  0.00000000E+00  0.00000000E+00  0.00000000E+00
  0.00000000E+00  0.00000000E+00  0.00000000E+00
  0.00000000E+00  0.00000000E+00  0.00000000E+00
  0.00000000E+00  0.00000000E+00  0.00000000E+00
  0.00000000E+00  0.00000000E+00  0.00000000E+00
  0.00000000E+00  0.00000000E+00  0.00000000E+00
  0.00000000E+00  0.00000000E+00  0.00000000E+00
  0.00000000E+00  0.00000000E+00  0.00000000E+00
  0.00000000E+00  0.00000000E+00  0.00000000E+00
  0.00000000E+00  0.00000000E+00  0.00000000E+00
  0.00000000E+00  0.00000000E+00  0.00000000E+00
  0.00000000E+00  0.00000000E+00  0.00000000E+00
  0.00000000E+00  0.00000000E+00  0.00000000E+00
  0.00000000E+00  0.00000000E+00  0.00000000E+00
  0.00000000E+00  0.00000000E+00  0.00000000E+00
  0.00000000E+00  0.00000000E+00  0.00000000E+00
  0.00000000E+00  0.00000000E+00  0.00000000E+00
  0.00000000E+00  0.00000000E+00  0.00000000E+00
  0.00000000E+00  0.00000000E+00  0.00000000E+00
  0.00000000E+00  0.00000000E+00  0.00000000E+00
  0.00000000E+00  0.00000000E+00  0.00000000E+00
  0.00000000E+00  0.00000000E+00  0.00000000E+00
  0.00000000E+00  0.00000000E+00  0.00000000E+00
  0.00000000E+00  0.00000000E+00  0.00000000E+00
  0.00000000E+00  0.00000000E+00  0.00000000E+00
  0.00000000E+00  0.00000000E+00  0.00000000E+00
  0.00000000E+00  0.00000000E+00  0.00000000E+00
  0.00000000E+00  0.00000000E+00  0.00000000E+00
  0.00000000E+00  0.00000000E+00  0.00000000E+00
  0.00000000E+00  0.00000000E+00  0.00000000E+00
  0.00000000E+00  0.00000000E+00  0.00000000E+00
  0.00000000E+00  0.00000000E+00  0.00000000E+00
  0.00000000E+00  0.00000000E+00  0.00000000E+00
  0.00000000E+00  0.00000000E+00  0.00000000E+00
