 C Si 
 1.0000000000000000
     8.7433155800000009    0.0000000000000000    0.0000000000000000
     0.0000000000000000    8.7433155800000009    0.0000000000000000
     0.0000000000000000    0.0000000000000000    8.7433155800000009
 C   Si 
  32  32
Cartesian
  1.1384336020982995  1.0935564537395084  1.0699118668269503
  1.1141913866236268  3.3249305706164702  3.3264560347822307
  3.2503658791293852  1.1026556758506203  3.2221493982289280
  3.3217987809624501  3.3063323808984806  1.0567748583795598
  1.0947349322886006  1.0685276734880413  5.4715945106983419
  1.0516501041116402  3.2735900397808080  7.7089431229689973
  3.3369105401350838  1.1047159570054150  7.6533510634434307
  3.2954159393104998  3.2931968910246181  5.4564225575397822
  1.0495364479147071  5.4960931846170009  1.1301351233440389
  1.0753870408177462  7.6935226696123751  3.2955997926087557
  3.2337548014953268  5.5234463795669173  3.3036087538601850
  3.2858987418121810  7.6556017800876317  1.0006903453329867
  1.1296861821406745  5.4519957998688620  5.3770154449634306
  1.1216431225244505  7.5975452115028830  7.6714162178643504
  3.2404108522506370  5.4785711356056721  7.6536184992846028
  3.3124170194717499  7.6394592636823067  5.4467486697879055
  5.4450004318721872  1.1001772317706731  1.1108958483832014
  5.3961900882370433  3.2846653609917853  3.2627530857260085
  7.6095539466475133  0.9966628105935171  3.3485889061053031
  7.7209864268520958  3.2395344540348319  1.0606984673017148
  5.5074479204702245  1.1171621260412923  5.4724227651114212
  5.4231986567653196  3.3023520692439696  7.6529212023734541
  7.7460952893351269  1.1110800072543123  7.7145235516609105
  7.6381183793366914  3.2755071613973601  5.4670943426971590
  5.4775416401439374  5.5233876596406013  1.1045922188701729
  5.5356681609589371  7.7036552512419210  3.2511768915375394
  7.6705476030370647  5.4685343771673285  3.3063729724353941
  7.6310285262736501  7.6426378589692536  1.0596072949265003
  5.5405955420054340  5.4424139054409171  5.4305901280293494
  5.5377470994376408  7.6190665621086726  7.6720570763515141
  7.6719704900400911  5.4813412942508331  7.6828307347494160
  7.6482782802029590  7.6960540110718076  5.3903945624771810
 -0.0446448845623095  0.0582524872407924 -0.0407914981264139
 -0.0051358907164213  2.1302907494233461  2.2436559726780496
  2.1640852408007083 -0.0045090311104829  2.1780455976164705
  2.2231431795700147  2.1993874707206822 -0.0188878358664912
 -0.0351281450698858  0.0333342705683454  4.3314918018106647
 -0.0255589606218405  2.1625375462300154  6.5239319797214783
  2.2355363728117221  0.0017637565067685  6.6151048639389129
  2.1560809362797229  2.1969813041085877  4.4125772095209337
 -0.0583904912111032  4.3237816105953506  0.0178125590138124
 -0.0493566955567754  6.5552407060964422  2.1986795136861144
  2.1680996541981683  4.4207533021231367  2.1702186481286914
  2.1639920678354541  6.5722759484148696 -0.0288102569016755
 -0.0372529401469200  4.3955264660608488  4.3726871559127769
 -0.0766809635656640  6.5487975806167738  6.5643217252835910
  2.1942427392637440  4.4191575020722320  6.5665512680196114
  2.1455164071615815  6.5406494595399991  4.3489925455432106
  4.3110893883215917  0.0011836857523992  0.0221343819650987
  4.4065776960354546  2.2230827725766544  2.1890574191198477
  6.4705224236810448  0.0018127546800190  2.1184417951692374
  6.5194530244346298  2.0947954996722720 -0.0129562404613842
  4.3461428396845525 -0.0063334504978549  4.3610513262705553
  4.3347723278134191  2.1257746548934251  6.5169366520760441
  6.5769551326763116  0.0491808820977294  6.4583613987833859
  6.5650727478714082  2.1580293896281466  4.3575550899738094
  4.3607288994171709  4.3726215510635384 -0.0244994179042245
  4.3859656336765669  6.5180894914362231  2.1721460162850881
  6.5598700524273701  4.4258211750103111  2.1769922468604990
  6.6180339613597559  6.5648439569784625  0.0084596217205124
  4.4177386880834950  4.3864816660019930  4.3635754079602220
  4.4225337741908550  6.5205443165678032  6.5311794700514518
  6.6322758021483175  4.4788288099304348  6.5697801082761282
  6.5279593139158525  6.5518920939151117  4.3942762627885523
