 C Si 
 1.0000000000000000
     8.7433155800000009    0.0000000000000000    0.0000000000000000
     0.0000000000000000    8.7433155800000009    0.0000000000000000
     0.0000000000000000    0.0000000000000000    8.7433155800000009
 C   Si 
  32  32
Cartesian
  1.0929144475000001  1.0929144475000001  1.0929144475000001
  1.0929144475000001  3.2787433425000003  3.2787433425000003
  3.2787433425000003  1.0929144475000001  3.2787433425000003
  3.2787433425000003  3.2787433425000003  1.0929144475000001
  1.0929144475000001  1.0929144475000001  5.4645722375000005
  1.0929144475000001  3.2787433425000003  7.6504011325000008
  3.2787433425000003  1.0929144475000001  7.6504011325000008
  3.2787433425000003  3.2787433425000003  5.4645722375000005
  1.0929144475000001  5.4645722375000005  1.0929144475000001
  1.0929144475000001  7.6504011325000008  3.2787433425000003
  3.2787433425000003  5.4645722375000005  3.2787433425000003
  3.2787433425000003  7.6504011325000008  1.0929144475000001
  1.0929144475000001  5.4645722375000005  5.4645722375000005
  1.0929144475000001  7.6504011325000008  7.6504011325000008
  3.2787433425000003  5.4645722375000005  7.6504011325000008
  3.2787433425000003  7.6504011325000008  5.4645722375000005
  5.4645722375000005  1.0929144475000001  1.0929144475000001
  5.4645722375000005  3.2787433425000003  3.2787433425000003
  7.6504011325000008  1.0929144475000001  3.2787433425000003
  7.6504011325000008  3.2787433425000003  1.0929144475000001
  5.4645722375000005  1.0929144475000001  5.4645722375000005
  5.4645722375000005  3.2787433425000003  7.6504011325000008
  7.6504011325000008  1.0929144475000001  7.6504011325000008
  7.6504011325000008  3.2787433425000003  5.4645722375000005
  5.4645722375000005  5.4645722375000005  1.0929144475000001
  5.4645722375000005  7.6504011325000008  3.2787433425000003
  7.6504011325000008  5.4645722375000005  3.2787433425000003
  7.6504011325000008  7.6504011325000008  1.0929144475000001
  5.4645722375000005  5.4645722375000005  5.4645722375000005
  5.4645722375000005  7.6504011325000008  7.6504011325000008
  7.6504011325000008  5.4645722375000005  7.6504011325000008
  7.6504011325000008  7.6504011325000008  5.4645722375000005
  0.0000000000000000  0.0000000000000000  0.0000000000000000
  0.0000000000000000  2.1858288950000002  2.1858288950000002
  2.1858288950000002  0.0000000000000000  2.1858288950000002
  2.1858288950000002  2.1858288950000002  0.0000000000000000
  0.0000000000000000  0.0000000000000000  4.3716577900000004
  0.0000000000000000  2.1858288950000002  6.5574866850000006
  2.1858288950000002  0.0000000000000000  6.5574866850000006
  2.1858288950000002  2.1858288950000002  4.3716577900000004
  0.0000000000000000  4.3716577900000004  0.0000000000000000
  0.0000000000000000  6.5574866850000006  2.1858288950000002
  2.1858288950000002  4.3716577900000004  2.1858288950000002
  2.1858288950000002  6.5574866850000006  0.0000000000000000
  0.0000000000000000  4.3716577900000004  4.3716577900000004
  0.0000000000000000  6.5574866850000006  6.5574866850000006
  2.1858288950000002  4.3716577900000004  6.5574866850000006
  2.1858288950000002  6.5574866850000006  4.3716577900000004
  4.3716577900000004  0.0000000000000000  0.0000000000000000
  4.3716577900000004  2.1858288950000002  2.1858288950000002
  6.5574866850000006  0.0000000000000000  2.1858288950000002
  6.5574866850000006  2.1858288950000002  0.0000000000000000
  4.3716577900000004  0.0000000000000000  4.3716577900000004
  4.3716577900000004  2.1858288950000002  6.5574866850000006
  6.5574866850000006  0.0000000000000000  6.5574866850000006
  6.5574866850000006  2.1858288950000002  4.3716577900000004
  4.3716577900000004  4.3716577900000004  0.0000000000000000
  4.3716577900000004  6.5574866850000006  2.1858288950000002
  6.5574866850000006  4.3716577900000004  2.1858288950000002
  6.5574866850000006  6.5574866850000006  0.0000000000000000
  4.3716577900000004  4.3716577900000004  4.3716577900000004
  4.3716577900000004  6.5574866850000006  6.5574866850000006
  6.5574866850000006  4.3716577900000004  6.5574866850000006
  6.5574866850000006  6.5574866850000006  4.3716577900000004
