 C Si                                   
   1.00000000000000     
     8.7433155800000009    0.0000000000000000    0.0000000000000000
     0.0000000000000000    8.7433155800000009    0.0000000000000000
     0.0000000000000000    0.0000000000000000    8.7433155800000009
   C    Si
    32    32
Direct
  0.1220622703820240  0.1199335988961536  0.1282830364305454
  0.1229089812472566  0.3740741729749715  0.3754154866588308
  0.3818727236712078  0.1255095076061465  0.3694219153598368
  0.3743771104886306  0.3798635594343835  0.1257161321791145
  0.1174557945440071  0.1282855984507805  0.6291287631985654
  0.1185840809042134  0.3657645597865766  0.8732807412127386
  0.3691448159407997  0.1224060896622916  0.8728125212864342
  0.3733148756480631  0.3708559544070198  0.6275845887749796
  0.1209161970347736  0.6319762824445760  0.1267008091642552
  0.1203064490925954  0.8788746857132068  0.3802537957444443
  0.3746076923229609  0.6217266810891857  0.3791370968088401
  0.3756313683573538  0.8743348778492788  0.1212997831420850
  0.1198546933037434  0.6233069168285610  0.6265888134399731
  0.1306288145864585  0.8810484177715523  0.8757807325162688
  0.3749734974008447  0.6249698925634064  0.8713676150271752
  0.3783190212680694  0.8779135475496602  0.6183311718337876
  0.6217587115312213  0.1188487743488054  0.1296980037296862
  0.6221949219760887  0.3867408538464048  0.3798692756147588
  0.8790480519974508  0.1261017985972970  0.3761303057350958
  0.8804973355566972  0.3722969243563341  0.1340842428214586
  0.6311061596996410  0.1262284184768845  0.6326366974663102
  0.6217738487859137  0.3794380792488639  0.8787447437165028
  0.8850729413050189  0.1206906489073489  0.8822536338706684
  0.8736266983777767  0.3777172869873127  0.6182489352670828
  0.6252801484462367  0.6145951477467904  0.1258433219746280
  0.6201265757670384  0.8746274951758366  0.3789460780620786
  0.8726557766426026  0.6300896643139424  0.3697486533240593
  0.8737790747177883  0.8809598079940812  0.1209172468964326
  0.6236304623810298  0.6236584741290727  0.6303592966328111
  0.6187373736190978  0.8707330502179076  0.8747660851756009
  0.8841755022211970  0.6255572118619028  0.8831058544485231
  0.8718518959183399  0.8807327658070818  0.6240602340431565
  0.9933766302416061  0.9995403094753641  0.9988468851892520
  0.9980807097416076  0.2514246798413424  0.2501401441702242
  0.2503018149172931  0.9996942728344322  0.2513817199336827
  0.2550777514491145  0.2522477138598447  0.9987546677362218
  0.0019711331045897  0.0072857022136361  0.5049356411475614
  0.9957793584830057  0.2505963303696532  0.7466722689471865
  0.2501090204549001  0.9984293209670696  0.7513168172609426
  0.2419970161775851  0.2401687256364440  0.5048506928070466
  0.9994248928407146  0.4917176104730743  0.9943108604103017
  0.9974650716516678  0.7460476440822674  0.2435041186914262
  0.2437852239294926  0.4977495049757863  0.2556533681006670
  0.2441812524012406  0.7549369409365880  0.0069687909564422
  0.0068334820664475  0.5059215521463258  0.4966078527590483
  0.9983725752876964  0.7512012335130649  0.7435252328295121
  0.2622080372806579  0.4948573833600136  0.7490788588978958
  0.2428769097350880  0.7471985168013546  0.4945841427115241
  0.4915414205062802  0.9992144042859152  0.0073258585739779
  0.4984767673257195  0.2473180574957468  0.2495527694483357
  0.7460322009961615  0.0040073988734903  0.2520563841849892
  0.7493605308771549  0.2475421435111897  0.0027999720808651
  0.4939200362015086  0.9968327976600619  0.5086901982072618
  0.5004906404684775  0.2476916904813606  0.7428777976806629
  0.7506938882038909  0.9975153247838051  0.7573977553724660
  0.7580648112237185  0.2441679811251802  0.4952650981975211
  0.5011341836025949  0.4993017141882135  0.0002909355768850
  0.4980984443958292  0.7493727794870395  0.2528736021200118
  0.7471605848773564  0.4932075060907053  0.2506395063069036
  0.7492440417693942  0.7471908146055739  0.0056023189710359
  0.4993949105862541  0.4973343039367819  0.4965365516444606
  0.4963264248333914  0.7408105772966636  0.7494116564683608
  0.7523522493788235  0.5018104976070603  0.7496276964904922
  0.7451458204067336  0.7476428080569306  0.4950679716241311
 
  0.00000000E+00  0.00000000E+00  0.00000000E+00
  0.00000000E+00  0.00000000E+00  0.00000000E+00
  0.00000000E+00  0.00000000E+00  0.00000000E+00
  0.00000000E+00  0.00000000E+00  0.00000000E+00
  0.00000000E+00  0.00000000E+00  0.00000000E+00
  0.00000000E+00  0.00000000E+00  0.00000000E+00
  0.00000000E+00  0.00000000E+00  0.00000000E+00
  0.00000000E+00  0.00000000E+00  0.00000000E+00
  0.00000000E+00  0.00000000E+00  0.00000000E+00
  0.00000000E+00  0.00000000E+00  0.00000000E+00
  0.00000000E+00  0.00000000E+00  0.00000000E+00
  0.00000000E+00  0.00000000E+00  0.00000000E+00
  0.00000000E+00  0.00000000E+00  0.00000000E+00
  0.00000000E+00  0.00000000E+00  0.00000000E+00
  0.00000000E+00  0.00000000E+00  0.00000000E+00
  0.00000000E+00  0.00000000E+00  0.00000000E+00
  0.00000000E+00  0.00000000E+00  0.00000000E+00
  0.00000000E+00  0.00000000E+00  0.00000000E+00
  0.00000000E+00  0.00000000E+00  0.00000000E+00
  0.00000000E+00  0.00000000E+00  0.00000000E+00
  0.00000000E+00  0.00000000E+00  0.00000000E+00
  0.00000000E+00  0.00000000E+00  0.00000000E+00
  0.00000000E+00  0.00000000E+00  0.00000000E+00
  0.00000000E+00  0.00000000E+00  0.00000000E+00
  0.00000000E+00  0.00000000E+00  0.00000000E+00
  0.00000000E+00  0.00000000E+00  0.00000000E+00
  0.00000000E+00  0.00000000E+00  0.00000000E+00
  0.00000000E+00  0.00000000E+00  0.00000000E+00
  0.00000000E+00  0.00000000E+00  0.00000000E+00
  0.00000000E+00  0.00000000E+00  0.00000000E+00
  0.00000000E+00  0.00000000E+00  0.00000000E+00
  0.00000000E+00  0.00000000E+00  0.00000000E+00
  0.00000000E+00  0.00000000E+00  0.00000000E+00
  0.00000000E+00  0.00000000E+00  0.00000000E+00
  0.00000000E+00  0.00000000E+00  0.00000000E+00
  0.00000000E+00  0.00000000E+00  0.00000000E+00
  0.00000000E+00  0.00000000E+00  0.00000000E+00
  0.00000000E+00  0.00000000E+00  0.00000000E+00
  0.00000000E+00  0.00000000E+00  0.00000000E+00
  0.00000000E+00  0.00000000E+00  0.00000000E+00
  0.00000000E+00  0.00000000E+00  0.00000000E+00
  0.00000000E+00  0.00000000E+00  0.00000000E+00
  0.00000000E+00  0.00000000E+00  0.00000000E+00
  0.00000000E+00  0.00000000E+00  0.00000000E+00
  0.00000000E+00  0.00000000E+00  0.00000000E+00
  0.00000000E+00  0.00000000E+00  0.00000000E+00
  0.00000000E+00  0.00000000E+00  0.00000000E+00
  0.00000000E+00  0.00000000E+00  0.00000000E+00
  0.00000000E+00  0.00000000E+00  0.00000000E+00
  0.00000000E+00  0.00000000E+00  0.00000000E+00
  0.00000000E+00  0.00000000E+00  0.00000000E+00
  0.00000000E+00  0.00000000E+00  0.00000000E+00
  0.00000000E+00  0.00000000E+00  0.00000000E+00
  0.00000000E+00  0.00000000E+00  0.00000000E+00
  0.00000000E+00  0.00000000E+00  0.00000000E+00
  0.00000000E+00  0.00000000E+00  0.00000000E+00
  0.00000000E+00  0.00000000E+00  0.00000000E+00
  0.00000000E+00  0.00000000E+00  0.00000000E+00
  0.00000000E+00  0.00000000E+00  0.00000000E+00
  0.00000000E+00  0.00000000E+00  0.00000000E+00
  0.00000000E+00  0.00000000E+00  0.00000000E+00
  0.00000000E+00  0.00000000E+00  0.00000000E+00
  0.00000000E+00  0.00000000E+00  0.00000000E+00
  0.00000000E+00  0.00000000E+00  0.00000000E+00
