 C Si 
 1.0000000000000000
     8.7433155800000009    0.0000000000000000    0.0000000000000000
     0.0000000000000000    8.7433155800000009    0.0000000000000000
     0.0000000000000000    0.0000000000000000    8.7433155800000009
 C   Si 
  32  32
Cartesian
  1.0672289503613293  1.0486173037942090  1.1216190710728664
  1.0746320106610845  3.2706485446476554  3.2823760734774146
  3.3388337344514860  1.0973692332909712  3.2299723881590929
  3.2732972229306063  3.3212669774769101  1.0991758171390111
  1.0269530783978893  1.1216414716243317  5.5006713171001396
  1.0368180421097670  3.1979949741938061  7.6353691103593002
  3.2275496204914331  1.0702350708312174  7.6312753157827879
  3.2640097684994633  3.2425106441026483  5.4871701128041410
  1.0572084694084607  5.5255680764881125  1.1077851587644647
  1.0518772507257816  7.6842787324639046  3.3246789366865563
  3.2753132726752132  5.4359525772687842  3.3149152854847288
  3.2842635952955646  7.6445857596370113  1.0605622837967990
  1.0479274072987550  5.4497690770289315  5.4784637348034169
  1.1421289497707114  7.7032843578363606  7.6572273232732826
  3.2785116219118708  5.4643089986805515  7.6186420443745533
  3.3077625928634453  7.6758751981839932  5.4062645682939827
  5.4362326295316796  1.0391323404277850  1.1339905767046847
  5.4400465551104364  3.3813973328577460  3.3213169558458455
  7.6857945285979614  1.1025478203417547  3.2886259622438478
  7.6984660721213629  3.2551094991108034  1.1723408492933411
  5.5179603187358675  1.1036548979077174  5.5313422934369516
  5.4363649793264575  3.3175468699418658  7.6831426085796268
  7.7384720371486129  1.0552364309519480  7.7138219425330270
  7.6383939230303861  3.3025014401515245  5.4055455480390799
  5.4670216637746938  5.3735993306869290  1.1002878776596912
  5.4219623514760213  7.6471442052672485  3.3132451483000889
  7.6299048478962792  5.5090727787930360  3.2328291612922642
  7.6397261974580468  7.7025096145884833  1.0572176486802807
  5.4525979378986777  5.4528428534517301  5.5114302592475157
  5.4098161186921159  7.6130938439911366  7.6483559413714186
  7.7306254440248985  5.4694441166535048  7.7212731759890119
  7.6228762650353659  7.7005245130975730  5.4563555671679875
 -0.0579102120006888 -0.0040192193260532 -0.0100820466903181
 -0.0167809604187188  2.1982853204532948  2.1870542197069800
  2.1884677580686729 -0.0026730690899194  2.1979097084233512
  2.2302252783563832  2.2054813666101403 -0.0108883329841753
  0.0172342387835870  0.0637011936757541  4.4148116581427921
 -0.0369024007331568  2.1910427996117963  6.5283912822398928
  2.1867820952418975 -0.0137329424598004  6.5690000338736416
  2.1158562818589868  2.0998709606858652  4.4140689279936280
 -0.0050283433859775  4.2992422446095722 -0.0497419428113802
 -0.0221636785221623  6.5229299899267712  2.1290333547489459
  2.1314911465565132  4.3519810017920983  2.2352580763940657
  2.1349537484637002  6.6006519176084142  0.0609303385432231
  0.0597472902172221  4.4234317891387605  4.3419991761785504
 -0.0142290878423454  6.5679894486900157  6.5008757523214040
  2.2925676175572032  4.3266942698096615  6.5494328576505954
  2.1235494689090211  6.5329924333022023  4.3243052405906059
  4.2977017601278886 -0.0068687112465220  0.0640522934067280
  4.3583396860270129  2.1623798253179189  2.1819186171498002
  6.5227949661514470  0.0350379530058770  2.2038085108830647
  6.5518956046552912  2.1643390800679572  0.0244810395182064
  4.3184987477948349 -0.0276918495637704  4.4476389353788601
  4.3759476144522349  2.1656466164222419  6.4952150224974483
  6.5635535685438438 -0.0217242995289836  6.6221675948051155
  6.6279998746220761  2.1348377135089516  4.3302590493005875
  4.3815743151631237  4.3655524567825026  0.0025437415621495
  4.3550318892598048  6.5520026981169108  2.2109537051866011
  6.5326607825201028  4.3122688721758049  2.1914203004566293
  6.5508771036244919  6.5329250905737766  0.0489828427435883
  4.3663673023014997  4.3483507680789000  4.3413757680325062
  4.3395385630114918  6.4771406623067085  6.5523426118334260
  6.5780531436419247  4.3874875419353359  6.5542315179248520
  6.5150450609340638  6.5368770119591275  4.3285355094602656
