 C Si                                   
   1.00000000000000     
     8.7433155800000009    0.0000000000000000    0.0000000000000000
     0.0000000000000000    8.7433155800000009    0.0000000000000000
     0.0000000000000000    0.0000000000000000    8.7433155800000009
   C    Si
    32    32
Direct
  0.1262211942549811  0.1226087932072417  0.1278003164123049
  0.1257405367410129  0.3724428348805802  0.3762140004043886
  0.3729877885534805  0.1237593096999419  0.3729303948998961
  0.3741591857114415  0.3751144771085180  0.1254300425397403
  0.1266622322177184  0.1255754257281936  0.6227432255098435
  0.1250533123182720  0.3762097027721438  0.8765653685345498
  0.3740949461178289  0.1227552512032446  0.8780409659559325
  0.3755607776869709  0.3753917851305886  0.6270382985120477
  0.1268021641618660  0.6257128504573686  0.1271037198884173
  0.1249858789349645  0.8762112451068518  0.3724120659993417
  0.3755005247597936  0.6282459221642753  0.3716031874717913
  0.3718074155744304  0.8794036502524705  0.1253714771075494
  0.1225575282018738  0.6258628121279912  0.6271521933451538
  0.1241747961025084  0.8741836890644308  0.8737620445481866
  0.3717347575668484  0.6263613306099671  0.8718032925379475
  0.3754687017945315  0.8743782909813831  0.6262567956949852
  0.6209460858564739  0.1193210631273374  0.1206015932346105
  0.6257574560389543  0.3737082891160881  0.3741011388166342
  0.8729600716045098  0.1281280781470713  0.3756029017980111
  0.8733113018790917  0.3780247885939474  0.1231353594964872
  0.6281396595812012  0.1267811455363486  0.6280359448650046
  0.6232897427648822  0.3760893186637446  0.8699088459400031
  0.8758960575146091  0.1239968079929668  0.8745059649020988
  0.8711260759602766  0.3746710033291265  0.6230589341491921
  0.6239722605773608  0.6266104224774978  0.1248693570389889
  0.6207001328757329  0.8765907241964470  0.3786625617594837
  0.8774937871166770  0.6241110692334360  0.3749067356784650
  0.8754895756803194  0.8712617319431288  0.1215466530822411
  0.6278269315611169  0.6301154327432812  0.6227628999691461
  0.6257699644665564  0.8788141906842242  0.8749655464748898
  0.8746053244819478  0.6269315616267122  0.8742099546271973
  0.8730419309405235  0.8705059492088978  0.6210746245447538
  0.9979827699786981  0.0000852882875293  0.0010284588995262
  0.0043897989910278  0.2502734184955386  0.2505004823502972
  0.2515154632357479  0.9999783078798785  0.2520346757915135
  0.2476588790016692  0.2464581287375722  0.0014581017075344
  0.0004328649706125  0.9995920769416529  0.5004528424051955
  0.9976734237755807  0.2505211741043709  0.7499090615258339
  0.2487527601369024  0.9997577596080376  0.7537339245280990
  0.2527870198299738  0.2476667866910844  0.5013967715929226
  0.0012919456934881  0.4965760556086138  0.9986184211641387
  0.0030269185184295  0.7473021099362995  0.2498412008688220
  0.2495740949736458  0.4995956606266176  0.2443996094776182
  0.2493288975067998  0.7494093088387359  0.9981082509081034
  0.9986020980834667  0.4992764347635017  0.5004951120598946
  0.9963978588090470  0.7469700308800924  0.7482102044212908
  0.2503850345320657  0.5030759877898703  0.7477175904857276
  0.2487395919367899  0.7521258329156311  0.5000765073030209
  0.4981552265895246  0.9988592647640431  0.9987777453405897
  0.4997610179053495  0.2503574510622784  0.2495002358742937
  0.7504414795298686  0.9997271474690024  0.2523774039099322
  0.7485806723164217  0.2545466156687439  0.0041068219734441
  0.4985546418155167  0.9999847471338583  0.4989472060314384
  0.4979436812461557  0.2497073776709584  0.7491654499226001
  0.7516272645723916  0.0010434268328012  0.7523295734328599
  0.7466296860367123  0.2504903551381119  0.4994052798241668
  0.4989475324907744  0.5037760636016131  0.0019598989642589
  0.5039543858224675  0.7507304421182681  0.2497487225755961
  0.7473200875723123  0.5004435531571261  0.2495199464416942
  0.7507915444800304  0.7513492479595172  0.0013980091179207
  0.5000768189647715  0.4997044374785133  0.5025471793366805
  0.4995327484640839  0.7487163716812049  0.7504968280016655
  0.7494165443589083  0.4989387390889064  0.7496114980596360
  0.7542597094864689  0.7504826428981346  0.4998026363509354
 
  0.00000000E+00  0.00000000E+00  0.00000000E+00
  0.00000000E+00  0.00000000E+00  0.00000000E+00
  0.00000000E+00  0.00000000E+00  0.00000000E+00
  0.00000000E+00  0.00000000E+00  0.00000000E+00
  0.00000000E+00  0.00000000E+00  0.00000000E+00
  0.00000000E+00  0.00000000E+00  0.00000000E+00
  0.00000000E+00  0.00000000E+00  0.00000000E+00
  0.00000000E+00  0.00000000E+00  0.00000000E+00
  0.00000000E+00  0.00000000E+00  0.00000000E+00
  0.00000000E+00  0.00000000E+00  0.00000000E+00
  0.00000000E+00  0.00000000E+00  0.00000000E+00
  0.00000000E+00  0.00000000E+00  0.00000000E+00
  0.00000000E+00  0.00000000E+00  0.00000000E+00
  0.00000000E+00  0.00000000E+00  0.00000000E+00
  0.00000000E+00  0.00000000E+00  0.00000000E+00
  0.00000000E+00  0.00000000E+00  0.00000000E+00
  0.00000000E+00  0.00000000E+00  0.00000000E+00
  0.00000000E+00  0.00000000E+00  0.00000000E+00
  0.00000000E+00  0.00000000E+00  0.00000000E+00
  0.00000000E+00  0.00000000E+00  0.00000000E+00
  0.00000000E+00  0.00000000E+00  0.00000000E+00
  0.00000000E+00  0.00000000E+00  0.00000000E+00
  0.00000000E+00  0.00000000E+00  0.00000000E+00
  0.00000000E+00  0.00000000E+00  0.00000000E+00
  0.00000000E+00  0.00000000E+00  0.00000000E+00
  0.00000000E+00  0.00000000E+00  0.00000000E+00
  0.00000000E+00  0.00000000E+00  0.00000000E+00
  0.00000000E+00  0.00000000E+00  0.00000000E+00
  0.00000000E+00  0.00000000E+00  0.00000000E+00
  0.00000000E+00  0.00000000E+00  0.00000000E+00
  0.00000000E+00  0.00000000E+00  0.00000000E+00
  0.00000000E+00  0.00000000E+00  0.00000000E+00
  0.00000000E+00  0.00000000E+00  0.00000000E+00
  0.00000000E+00  0.00000000E+00  0.00000000E+00
  0.00000000E+00  0.00000000E+00  0.00000000E+00
  0.00000000E+00  0.00000000E+00  0.00000000E+00
  0.00000000E+00  0.00000000E+00  0.00000000E+00
  0.00000000E+00  0.00000000E+00  0.00000000E+00
  0.00000000E+00  0.00000000E+00  0.00000000E+00
  0.00000000E+00  0.00000000E+00  0.00000000E+00
  0.00000000E+00  0.00000000E+00  0.00000000E+00
  0.00000000E+00  0.00000000E+00  0.00000000E+00
  0.00000000E+00  0.00000000E+00  0.00000000E+00
  0.00000000E+00  0.00000000E+00  0.00000000E+00
  0.00000000E+00  0.00000000E+00  0.00000000E+00
  0.00000000E+00  0.00000000E+00  0.00000000E+00
  0.00000000E+00  0.00000000E+00  0.00000000E+00
  0.00000000E+00  0.00000000E+00  0.00000000E+00
  0.00000000E+00  0.00000000E+00  0.00000000E+00
  0.00000000E+00  0.00000000E+00  0.00000000E+00
  0.00000000E+00  0.00000000E+00  0.00000000E+00
  0.00000000E+00  0.00000000E+00  0.00000000E+00
  0.00000000E+00  0.00000000E+00  0.00000000E+00
  0.00000000E+00  0.00000000E+00  0.00000000E+00
  0.00000000E+00  0.00000000E+00  0.00000000E+00
  0.00000000E+00  0.00000000E+00  0.00000000E+00
  0.00000000E+00  0.00000000E+00  0.00000000E+00
  0.00000000E+00  0.00000000E+00  0.00000000E+00
  0.00000000E+00  0.00000000E+00  0.00000000E+00
  0.00000000E+00  0.00000000E+00  0.00000000E+00
  0.00000000E+00  0.00000000E+00  0.00000000E+00
  0.00000000E+00  0.00000000E+00  0.00000000E+00
  0.00000000E+00  0.00000000E+00  0.00000000E+00
  0.00000000E+00  0.00000000E+00  0.00000000E+00
