 C Si 
 1.0000000000000000
     8.7433155800000009    0.0000000000000000    0.0000000000000000
     0.0000000000000000    8.7433155800000009    0.0000000000000000
     0.0000000000000000    0.0000000000000000    8.7433155800000009
 C   Si 
  32  32
Cartesian
  1.1035917342558039  1.0720073718938634  1.1173984976166045
  1.0993891939252860  3.2563852408707730  3.2893577311498197
  3.2611499428093795  1.0820667006695301  3.2606481319838321
  3.2713918378309392  3.2797442519864344  1.0966744451377697
  1.1074478683467606  1.0979455762344568  5.4448405459396820
  1.0933805739229590  3.2893201555948814  7.6640876435965630
  3.2708301707912693  1.0732879003721334  7.6769892575207423
  3.2836463987874267  3.2821688435362568  5.4823937246370900
  1.1086713374941874  5.4708049140101283  1.1113079343763292
  1.0927909825720714  7.6609914307139420  3.2561162188320574
  3.2831195884305004  5.4929523593303564  3.2490439385997698
  3.2508295693514282  7.6889036363613155  1.0961623890820302
  1.0715591457737204  5.4721160762212486  5.4833895431058357
  1.0856994294063960  7.6432638683789325  7.6395772973107885
  3.2501942974617393  5.4764747806316718  7.6224513103423455
  3.2828413502025109  7.6449653343512773  5.4755607988808155
  5.4291275868089279  1.0432617102633861  1.0544577891009903
  5.4711949146865493  3.2674495066038163  3.2708843155111964
  7.6325653947776004  1.1202642218987229  3.2840147031837681
  7.6356363119095327  3.3051900237396978  1.0766113071345469
  5.4920232720321831  1.1084875650182340  5.4911164615381889
  5.4496189187703621  3.2882675993443207  7.6058875658870395
  7.6582356461280519  1.0841432231951826  7.6460816277314301
  7.6165301920877226  3.2758668207817534  5.4476008862048531
  5.4555863873938701  5.4786526694378841  1.0917721948635868
  5.4269771422804549  7.6643093361503016  3.3107662757944101
  7.6722051002504585  5.4568000352791630  3.2779279031044841
  7.6546816471733070  7.6177162751561243  1.0627207455907950
  5.4892889922618808  5.5092980803027727  5.4450125659462465
  5.4713042798165077  7.6837498053344673  7.6500998944570897
  7.6469503598939905  5.4814604903645483  7.6434935164830584
  7.6332811167855761  7.6111082282008269  5.4302514411247964
 -0.0176372786736957  0.0007457024131208  0.0089921407196206
  0.0383813979113465  2.1882194791919032  2.1902047701308671
  2.1990790683200165 -0.0001896610518364  2.2036187075481588
  2.1653597353006537  2.1548611968088358  0.0127486433766994
  0.0037846750415890 -0.0035666000315161  4.3756171340566592
 -0.0203419901510078  2.1903856846666687  6.5566915812220037
  2.1749238832729536 -0.0021179841931746  6.5901335655010769
  2.2101966889011702  2.1654288747246948  4.3838702048301110
  0.0112958889103844  4.3417211636577093 -0.0120795797605818
  0.0264653038415456  6.5338981807729510  2.1844404640822854
  2.1821050729474809  4.3681225232571004  2.1368629132915911
  2.1799612341154497  6.5523220857667779 -0.0165401593086155
 -0.0122222976061149  4.3653314307945692  4.3759867109871076
 -0.0314946571962389  6.5309947087869817  6.5418379374316284
  2.1891953734230332  4.3985521219670503  6.5375308583339100
  2.1748087495437551  6.5760735130517105  4.3723267174944977
  4.3555283538986371 -0.0099738081612158 -0.0106865582063662
  4.3695682941285279  2.1889542024419026  2.1814592995334063
  6.5613466798517228 -0.0023856357853109  2.2066152876456857
  6.5450770551510580  2.2255813906127928  0.0359072405447265
  4.3590205672669144 -0.0001333606221583  4.3624528800921158
  4.3536787462020499  2.1832704056314132  6.5501899503059784
  6.5717143726885698  0.0091230100838322  6.5778548806902588
  6.5280189664152726  2.1901162247187971  4.3664579638208796
  4.3624557344291333  4.4046731057190494  0.0171360151494240
  4.4062322331709334  6.5638731709529408  2.1836318971803190
  6.5340553649179531  4.3755359152292552  2.1816316352444103
  6.5644074081845307  6.5692835857057554  0.0122232349016787
  4.3723294424515213  4.3690735936010165  4.3939285827794290
  4.3675724623662759  6.5462635175213384  6.5618306090075569
  6.5523853482030070  4.3623788509415746  6.5540898899319391
  6.5947306693193362  6.5617065841708433  4.3699321773322053
