 C Si                                   
   1.00000000000000     
     8.7433155800000009    0.0000000000000000    0.0000000000000000
     0.0000000000000000    8.7433155800000009    0.0000000000000000
     0.0000000000000000    0.0000000000000000    8.7433155800000009
   C    Si
    32    32
Direct
  0.1249377717708384  0.1252047984667399  0.1244408218407074
  0.1241829662645273  0.3743974575695788  0.3734773278086507
  0.3772488640252902  0.1270694406605415  0.3758070587591575
  0.3731310069363190  0.3759244185700155  0.1246780757436525
  0.1259426297855768  0.1268362627834421  0.6285550954398076
  0.1256626056736820  0.3747847828068771  0.8744182633563327
  0.3732426103668942  0.1272595505218490  0.8776313926944326
  0.3758450224718715  0.3758733733131692  0.6252245464502195
  0.1232457582540079  0.6266674720108654  0.1235609444131853
  0.1276318272036860  0.8775248009783496  0.3755338768433703
  0.3771526086226089  0.6238818813550751  0.3747448687853421
  0.3757983713823592  0.8771238975624556  0.1262051033086067
  0.1268495123231403  0.6249673268086866  0.6253835273943480
  0.1278360036444397  0.8746812689479242  0.8739879233927184
  0.3786531985229615  0.6250939233290751  0.8766985160423459
  0.3737090978952793  0.8743913821517353  0.6218877288408819
  0.6233793237346319  0.1231102221964093  0.1242763052765028
  0.6256709911348040  0.3772164986171092  0.3709913690400839
  0.8726407268354777  0.1247066332801765  0.3727015271144793
  0.8778853479763882  0.3748031928821689  0.1247863082665361
  0.6236651644676598  0.1270431201644868  0.6261591879526165
  0.6226904264509514  0.3714591606467579  0.8767499384961042
  0.8742932272273407  0.1270045917175864  0.8744248462664643
  0.8698015065341735  0.3726354100937073  0.6248898355130663
  0.6246789432357929  0.6255713199509358  0.1235367639190983
  0.6282539391291024  0.8755816496374109  0.3766929815761060
  0.8739752433005918  0.6245901063129935  0.3754676651958135
  0.8753935598051399  0.8751829452770323  0.1234401473993856
  0.6236135206607898  0.6247474470788035  0.6262181304242276
  0.6241288581145241  0.8788685968776235  0.8772231990080428
  0.8750614298642532  0.6233627024242097  0.8750279700123258
  0.8772816977850439  0.8766356863016043  0.6223691397020659
  0.0000753758493630  0.9998550024146979  0.0022492072202311
  0.9997819685602423  0.2515098219843637  0.2488285464451181
  0.2486492552686812  0.9992270386420117  0.2506271894643959
  0.2478922463904212  0.2489738589887693  0.9989765116582134
  0.0001376667913462  0.9978180376534169  0.4980647614895517
  0.0034243316839166  0.2490546108671978  0.7488925979991947
  0.2506528177650083  0.0004161155674467  0.7550616375348511
  0.2534522282416276  0.2496623403276246  0.5007931926654052
  0.0003660403117678  0.4990977666311736  0.0034490672683489
  0.0016844787216499  0.7523475693852291  0.2519856237541873
  0.2492128529009747  0.4994154717579846  0.2531627853218481
  0.2480023270577760  0.7478890092613071  0.0005439560269664
  0.0004770241620164  0.4981017966059724  0.5003386501675493
  0.9992967662114722  0.7502921584548545  0.7484092587675661
  0.2474747100130230  0.4997775299057778  0.7460902531351792
  0.2482210741068300  0.7503532672856110  0.5015975953472278
  0.5032837669421752  0.0012863095062485  0.0041134272700774
  0.5011154627767453  0.2514812666036335  0.2478377449807780
  0.7505270911691682  0.9993422956976374  0.2521849196615449
  0.7509690621457779  0.2466000963064587  0.9978686675354567
  0.5017120419616390  0.9984259733001011  0.4977339811909118
  0.4989849312264525  0.2522542596732507  0.7509492158137832
  0.7481470848356437  0.9996984250189271  0.7497952153423029
  0.7481410747285011  0.2497536105888543  0.4965293984128465
  0.5005386883344869  0.5020257713948126  0.9975949982624712
  0.4991713587355093  0.7470928027046142  0.2513832739005437
  0.7490105461266978  0.5034703461221071  0.2507653999961406
  0.7523428383602422  0.7537073943519133  0.9970381524584582
  0.4987618922486874  0.4993655806089592  0.5012765886372463
  0.4983932320944149  0.7520635026551759  0.7502756169920701
  0.7501358213618872  0.4998335939937917  0.7516530841466746
  0.7516301509936554  0.7502836981702643  0.5004348045321265
 
  0.00000000E+00  0.00000000E+00  0.00000000E+00
  0.00000000E+00  0.00000000E+00  0.00000000E+00
  0.00000000E+00  0.00000000E+00  0.00000000E+00
  0.00000000E+00  0.00000000E+00  0.00000000E+00
  0.00000000E+00  0.00000000E+00  0.00000000E+00
  0.00000000E+00  0.00000000E+00  0.00000000E+00
  0.00000000E+00  0.00000000E+00  0.00000000E+00
  0.00000000E+00  0.00000000E+00  0.00000000E+00
  0.00000000E+00  0.00000000E+00  0.00000000E+00
  0.00000000E+00  0.00000000E+00  0.00000000E+00
  0.00000000E+00  0.00000000E+00  0.00000000E+00
  0.00000000E+00  0.00000000E+00  0.00000000E+00
  0.00000000E+00  0.00000000E+00  0.00000000E+00
  0.00000000E+00  0.00000000E+00  0.00000000E+00
  0.00000000E+00  0.00000000E+00  0.00000000E+00
  0.00000000E+00  0.00000000E+00  0.00000000E+00
  0.00000000E+00  0.00000000E+00  0.00000000E+00
  0.00000000E+00  0.00000000E+00  0.00000000E+00
  0.00000000E+00  0.00000000E+00  0.00000000E+00
  0.00000000E+00  0.00000000E+00  0.00000000E+00
  0.00000000E+00  0.00000000E+00  0.00000000E+00
  0.00000000E+00  0.00000000E+00  0.00000000E+00
  0.00000000E+00  0.00000000E+00  0.00000000E+00
  0.00000000E+00  0.00000000E+00  0.00000000E+00
  0.00000000E+00  0.00000000E+00  0.00000000E+00
  0.00000000E+00  0.00000000E+00  0.00000000E+00
  0.00000000E+00  0.00000000E+00  0.00000000E+00
  0.00000000E+00  0.00000000E+00  0.00000000E+00
  0.00000000E+00  0.00000000E+00  0.00000000E+00
  0.00000000E+00  0.00000000E+00  0.00000000E+00
  0.00000000E+00  0.00000000E+00  0.00000000E+00
  0.00000000E+00  0.00000000E+00  0.00000000E+00
  0.00000000E+00  0.00000000E+00  0.00000000E+00
  0.00000000E+00  0.00000000E+00  0.00000000E+00
  0.00000000E+00  0.00000000E+00  0.00000000E+00
  0.00000000E+00  0.00000000E+00  0.00000000E+00
  0.00000000E+00  0.00000000E+00  0.00000000E+00
  0.00000000E+00  0.00000000E+00  0.00000000E+00
  0.00000000E+00  0.00000000E+00  0.00000000E+00
  0.00000000E+00  0.00000000E+00  0.00000000E+00
  0.00000000E+00  0.00000000E+00  0.00000000E+00
  0.00000000E+00  0.00000000E+00  0.00000000E+00
  0.00000000E+00  0.00000000E+00  0.00000000E+00
  0.00000000E+00  0.00000000E+00  0.00000000E+00
  0.00000000E+00  0.00000000E+00  0.00000000E+00
  0.00000000E+00  0.00000000E+00  0.00000000E+00
  0.00000000E+00  0.00000000E+00  0.00000000E+00
  0.00000000E+00  0.00000000E+00  0.00000000E+00
  0.00000000E+00  0.00000000E+00  0.00000000E+00
  0.00000000E+00  0.00000000E+00  0.00000000E+00
  0.00000000E+00  0.00000000E+00  0.00000000E+00
  0.00000000E+00  0.00000000E+00  0.00000000E+00
  0.00000000E+00  0.00000000E+00  0.00000000E+00
  0.00000000E+00  0.00000000E+00  0.00000000E+00
  0.00000000E+00  0.00000000E+00  0.00000000E+00
  0.00000000E+00  0.00000000E+00  0.00000000E+00
  0.00000000E+00  0.00000000E+00  0.00000000E+00
  0.00000000E+00  0.00000000E+00  0.00000000E+00
  0.00000000E+00  0.00000000E+00  0.00000000E+00
  0.00000000E+00  0.00000000E+00  0.00000000E+00
  0.00000000E+00  0.00000000E+00  0.00000000E+00
  0.00000000E+00  0.00000000E+00  0.00000000E+00
  0.00000000E+00  0.00000000E+00  0.00000000E+00
  0.00000000E+00  0.00000000E+00  0.00000000E+00
