 C Si 
 1.0000000000000000
     8.7433155800000009    0.0000000000000000    0.0000000000000000
     0.0000000000000000    8.7433155800000009    0.0000000000000000
     0.0000000000000000    0.0000000000000000    8.7433155800000009
 C   Si 
  32  32
Cartesian
  1.0923703664544409  1.0947050651250070  1.0880253763878911
  1.0857708637112766  3.2734751238804858  3.2654301390061158
  3.2984058703696069  1.1110082202691995  3.2857997119229179
  3.2624021463273873  3.2868258257856646  1.0900997621338959
  1.1011561571903905  1.1089694725034425  5.4956555588472522
  1.0987078180101115  3.2768616306622711  7.6453148254399519
  3.2633779303407580  1.1126704107814598  7.6734082292423267
  3.2861316406437857  3.2863795209962028  5.4665355179766246
  1.0775765583111740  5.4791514715118304  1.0803323303672867
  1.1159253432938796  7.6724762642303741  3.2834111962224406
  3.2975642790076902  5.4547961733315455  3.2765126497759534
  3.2857237554460221  7.6689710391481336  1.1034510460336400
  1.1090853174103215  5.4642865654773143  5.4679255385423362
  1.1177105223493493  7.6476143663265770  7.6415522273314203
  3.3106844100626436  5.4653934388064087  7.6652517942759202
  3.2674565780155236  7.6450797945849995  5.4373606685853133
  5.4504021534588709  1.0763915237871526  1.0865869561488548
  5.4704389247429992  3.2981228893920052  3.2436946169736962
  7.6297732626831634  1.0903494496879214  3.2586470687098332
  7.6756286404156970  3.2770225957604162  1.0910460732375060
  5.4529013491933291  1.1107780918659460  5.4747073835862565
  5.4443789071054205  3.2477846666165462  7.6657013970170516
  7.6442215951052903  1.1104412254959399  7.6453723819006596
  7.6049490635876902  3.2580689867319785  5.4636090346250237
  5.4617651368914562  5.4695674681281785  1.0801209126766540
  5.4930224541838415  7.6554866788368887  3.2935456146910242
  7.6414413612843326  5.4609884076402571  3.2828322868927962
  7.6538421500759668  7.6520006807909686  1.0792761639545596
  5.4524498110921140  5.4623640876093598  5.4752227362165939
  5.4569555690803542  7.6842254958528553  7.6698392630244419
  7.6509382331892182  5.4502568280964923  7.6506456831445639
  7.6703507362928054  7.6647024540247868  5.4415697956682862
  0.0006590348381143 -0.0012677596466290  0.0196655285312834
 -0.0019063176841332  2.1990297450789118  2.1755865068823406
  2.1740189075460368 -0.0067582450840240  2.1913126104156437
  2.1674001400265586  2.1768570203092499 -0.0089486815646635
  0.0012036642015952 -0.0190775853798427  4.3547373889806078
  0.0299400125630922  2.1775630594659878  6.5478043198330429
  2.1915366867357275  0.0036382297239445  6.6017421793187552
  2.2160128159707502  2.1828766299257989  4.3785929237893946
  0.0032004059607763  4.3637692789295253  0.0301562835838353
  0.0147279290512109  6.5780122249810091  2.2031898301060151
  2.1789466195053326  4.3665470751146129  2.2134821251806835
  2.1683626100405355  6.5390296267851458  0.0047559792054086
  0.0041707727878248  4.3550611986909793  4.3746187152861156
 -0.0061485949396446  6.5600411185701715  6.5435783323987167
  2.1637494877128458  4.3697126637590893  6.5233025343229718
  2.1702751845226107  6.5605754123621747  4.3856260702899252
  4.4003688006666124  0.0112466099467127  0.0359649927376859
  4.3814106330748279  2.1987800763736578  2.1669236170025177
  6.5620952094314564 -0.0057505162738877  2.2049323371178442
  6.5659595011571827  2.1561024640657380 -0.0186349123434045
  4.3866267131568364 -0.0137622121685497  4.3518452724419019
  4.3627827233774843  2.2055385987224723  6.5657859784134258
  6.5412860629750922 -0.0026367652305450  6.5556961881118117
  6.5412335147116725  2.1836746346227960  4.3413132250710635
  4.3763677121077054  4.3893697485978009 -0.0210276891616859
  4.3644127179219661  6.5320681415931325  2.1979232952460346
  6.5488355775338567  4.4020001213174158  2.1925210287111816
  6.5779708601365012  6.5899016037982614 -0.0258963677555212
  4.3608326232082568  4.3661108610540458  4.3828194073212829
  4.3576093111376402  6.5755285399143544  6.5598964913409112
  6.5586742140294971  4.3702028497732872  6.5719401213746496
  6.5717396095806047  6.5599671476321113  4.3754594232400157
