 C Si                                   
   1.00000000000000     
     8.7433155800000009    0.0000000000000000    0.0000000000000000
     0.0000000000000000    8.7433155800000009    0.0000000000000000
     0.0000000000000000    0.0000000000000000    8.7433155800000009
   C    Si
    32    32
Direct
  0.1250269640111910  0.1243595353125428  0.1246622335676690
  0.1239297431778965  0.3747854155660946  0.3752669722362327
  0.3753164231623387  0.1248811469022044  0.3752278632578196
  0.3755758163561111  0.3739630720423364  0.1249106678340794
  0.1247303749738435  0.1255294890193142  0.6243108428318038
  0.1247698096275869  0.3756433291359471  0.8754201486240376
  0.3758709092284036  0.1242661543075911  0.8746955365515845
  0.3758970912727051  0.3754699892460920  0.6247772769790387
  0.1227269759160592  0.6242820294286560  0.1240582957046783
  0.1246372577587209  0.8761657176366455  0.3735334728785062
  0.3743807665909742  0.6266046836117454  0.3755631186022441
  0.3740937540402385  0.8751723924605272  0.1252908636322161
  0.1240749570953739  0.6247894541674697  0.6240301141653362
  0.1245659080251045  0.8750011182893545  0.8756175474857670
  0.3746652357345113  0.6256147902593625  0.8753928492533873
  0.3758426931401360  0.8759091930479741  0.6247492129498511
  0.6254595400541945  0.1246366688115401  0.1262230647323719
  0.6260238480448734  0.3745647166272192  0.3751775067859953
  0.8743515256740721  0.1262335338049354  0.3758919631832498
  0.8742420864375973  0.3759395058242845  0.1250392818187507
  0.6244278072252243  0.1247692750849865  0.6257648783931913
  0.6263397612342771  0.3756988469783593  0.8741532017664682
  0.8750132137911280  0.1254863884185795  0.8763730889745673
  0.8728994933981227  0.3766553810694973  0.6239940608146455
  0.6249919151384660  0.6250542471806426  0.1226470659956078
  0.6249956910111649  0.8752405726140182  0.3747191422294591
  0.8760840038728333  0.6254665480525148  0.3758072615362309
  0.8750495173744355  0.8741028170091596  0.1254174772352030
  0.6239469174187775  0.6258790101917668  0.6249171339880562
  0.6239722722214296  0.8761972804350364  0.8744485520863492
  0.8756726457363229  0.6236767574956232  0.8741577092080561
  0.8736869855528369  0.8745910870092857  0.6252473098593043
  0.0008421582970612  0.0004125168152243  0.0005811148833459
  0.9994091753992294  0.2494256304758125  0.2514004270089103
  0.2494176981414142  0.0004598506404463  0.2482922007624708
  0.2484919024917360  0.2503367183379126  0.9987979638859557
  0.9993010666134552  0.9995515385296940  0.5007055231187820
  0.9992438909233812  0.2481899606759512  0.7501688747522195
  0.2506097079308418  0.0010252581451127  0.7511820899474415
  0.2508198884168209  0.2482114230126697  0.5019946395041117
  0.9995930367432280  0.5007008910302133  0.0003345001325954
  0.0014371439920353  0.7498863346268649  0.2491871482003774
  0.2493614730097846  0.4993053420432787  0.2503704186843123
  0.2495319984020057  0.7497489703603293  0.0002280398676078
  0.0004481431886916  0.4995951048860832  0.5011315870303434
  0.0011556537600299  0.7495448542531165  0.7491039505416666
  0.2496899878139729  0.5001430568793950  0.7494402689458752
  0.2496198148005604  0.7502719473947792  0.5005362856458149
  0.4990947016877172  0.0001335080632217  0.0008244021647670
  0.5014038378714716  0.2510076141803097  0.2502113788981362
  0.7493186015204643  0.9994663954640259  0.2511648603687604
  0.7495226460726983  0.2488123773596200  0.0002965167626456
  0.5001925915950665  0.0002657031804389  0.4986776416229048
  0.4981566023860609  0.2505666772574315  0.7492383453711540
  0.7502787262201096  0.9998001307664097  0.7495033790984635
  0.7519127924718845  0.2493860836881936  0.4995399853756126
  0.4995369315769551  0.5007005469987789  0.9998264077263386
  0.4988765168729898  0.7509429988103165  0.2498766214342822
  0.7506038271387254  0.5001540000111433  0.2512200002735483
  0.7492848399864300  0.7503139975355140  0.0011553746623889
  0.4990102659139453  0.5004643335412169  0.4990587215009583
  0.4997465536730488  0.7498377435598016  0.7495784549179589
  0.7504750975658538  0.4984636416671293  0.7481443800751606
  0.7503611322299690  0.7500049455644202  0.5009226339855459
 
  0.00000000E+00  0.00000000E+00  0.00000000E+00
  0.00000000E+00  0.00000000E+00  0.00000000E+00
  0.00000000E+00  0.00000000E+00  0.00000000E+00
  0.00000000E+00  0.00000000E+00  0.00000000E+00
  0.00000000E+00  0.00000000E+00  0.00000000E+00
  0.00000000E+00  0.00000000E+00  0.00000000E+00
  0.00000000E+00  0.00000000E+00  0.00000000E+00
  0.00000000E+00  0.00000000E+00  0.00000000E+00
  0.00000000E+00  0.00000000E+00  0.00000000E+00
  0.00000000E+00  0.00000000E+00  0.00000000E+00
  0.00000000E+00  0.00000000E+00  0.00000000E+00
  0.00000000E+00  0.00000000E+00  0.00000000E+00
  0.00000000E+00  0.00000000E+00  0.00000000E+00
  0.00000000E+00  0.00000000E+00  0.00000000E+00
  0.00000000E+00  0.00000000E+00  0.00000000E+00
  0.00000000E+00  0.00000000E+00  0.00000000E+00
  0.00000000E+00  0.00000000E+00  0.00000000E+00
  0.00000000E+00  0.00000000E+00  0.00000000E+00
  0.00000000E+00  0.00000000E+00  0.00000000E+00
  0.00000000E+00  0.00000000E+00  0.00000000E+00
  0.00000000E+00  0.00000000E+00  0.00000000E+00
  0.00000000E+00  0.00000000E+00  0.00000000E+00
  0.00000000E+00  0.00000000E+00  0.00000000E+00
  0.00000000E+00  0.00000000E+00  0.00000000E+00
  0.00000000E+00  0.00000000E+00  0.00000000E+00
  0.00000000E+00  0.00000000E+00  0.00000000E+00
  0.00000000E+00  0.00000000E+00  0.00000000E+00
  0.00000000E+00  0.00000000E+00  0.00000000E+00
  0.00000000E+00  0.00000000E+00  0.00000000E+00
  0.00000000E+00  0.00000000E+00  0.00000000E+00
  0.00000000E+00  0.00000000E+00  0.00000000E+00
  0.00000000E+00  0.00000000E+00  0.00000000E+00
  0.00000000E+00  0.00000000E+00  0.00000000E+00
  0.00000000E+00  0.00000000E+00  0.00000000E+00
  0.00000000E+00  0.00000000E+00  0.00000000E+00
  0.00000000E+00  0.00000000E+00  0.00000000E+00
  0.00000000E+00  0.00000000E+00  0.00000000E+00
  0.00000000E+00  0.00000000E+00  0.00000000E+00
  0.00000000E+00  0.00000000E+00  0.00000000E+00
  0.00000000E+00  0.00000000E+00  0.00000000E+00
  0.00000000E+00  0.00000000E+00  0.00000000E+00
  0.00000000E+00  0.00000000E+00  0.00000000E+00
  0.00000000E+00  0.00000000E+00  0.00000000E+00
  0.00000000E+00  0.00000000E+00  0.00000000E+00
  0.00000000E+00  0.00000000E+00  0.00000000E+00
  0.00000000E+00  0.00000000E+00  0.00000000E+00
  0.00000000E+00  0.00000000E+00  0.00000000E+00
  0.00000000E+00  0.00000000E+00  0.00000000E+00
  0.00000000E+00  0.00000000E+00  0.00000000E+00
  0.00000000E+00  0.00000000E+00  0.00000000E+00
  0.00000000E+00  0.00000000E+00  0.00000000E+00
  0.00000000E+00  0.00000000E+00  0.00000000E+00
  0.00000000E+00  0.00000000E+00  0.00000000E+00
  0.00000000E+00  0.00000000E+00  0.00000000E+00
  0.00000000E+00  0.00000000E+00  0.00000000E+00
  0.00000000E+00  0.00000000E+00  0.00000000E+00
  0.00000000E+00  0.00000000E+00  0.00000000E+00
  0.00000000E+00  0.00000000E+00  0.00000000E+00
  0.00000000E+00  0.00000000E+00  0.00000000E+00
  0.00000000E+00  0.00000000E+00  0.00000000E+00
  0.00000000E+00  0.00000000E+00  0.00000000E+00
  0.00000000E+00  0.00000000E+00  0.00000000E+00
  0.00000000E+00  0.00000000E+00  0.00000000E+00
  0.00000000E+00  0.00000000E+00  0.00000000E+00
