 C Si 
 1.0000000000000000
     8.7433155800000009    0.0000000000000000    0.0000000000000000
     0.0000000000000000    8.7433155800000009    0.0000000000000000
     0.0000000000000000    0.0000000000000000    8.7433155800000009
 C   Si 
  32  32
Cartesian
  1.0931502023591231  1.0873146626197192  1.0899612489897805
  1.0835568543527068  3.2768671630758184  3.2810775650124842
  3.2815099300651673  1.0918752773583091  3.2807356228721787
  3.2837778866175960  3.2696771541324252  1.0921333881819411
  1.0905570308080481  1.0975439370920099  5.4585467188942385
  1.0909018204305077  3.2843681721573645  7.6540746245104820
  3.2863579767254794  1.0864982030242722  7.6477391124879430
  3.2865868946013372  3.2828526067978059  5.4626248998407920
  1.0730406806131940  5.4582947942175979  1.0846808296629411
  1.0897428776103317  7.6605933696743778  3.2659210330701662
  3.2733291893872032  5.4786024927235717  3.2836668661484154
  3.2708197480806849  7.6519084141859848  1.0954575600271972
  1.0848265054598012  5.4627313688421548  5.4560922195709711
  1.0891190443727325  7.6504109100567081  7.6558005450536797
  3.2758163928819193  5.4699475427531148  7.6538359374977620
  3.2861112745613035  7.6583504942415752  5.4623795271771769
  5.4685901412154658  1.0897377282592511  1.1036080884298849
  5.4735240640622767  3.2749375226050543  3.2802953403475343
  7.6447313168228543  1.1036996228351672  3.2865420580968734
  7.6437744550415641  3.2869577384109845  1.0932579008379120
  5.4595693754975505  1.0908971467558555  5.4712598106719650
  5.4762861927731228  3.2848535821739095  7.6429973083116325
  7.6505166648458482  1.0971670949381225  7.6624064827240632
  7.6320357404019230  3.2932168615957824  5.4557769937481853
  5.4645015490041713  5.4650465377196573  1.0723420029606854
  5.4645345626507620  7.6525045347842946  3.2762877143790865
  7.6598789204501454  5.4686514143563798  3.2858014848668331
  7.6508340785313589  7.6425567784780668  1.0965645827148445
  5.4553648041605580  5.4722577010046578  5.4638477138066905
  5.4555864892016519  7.6608693331813011  7.6455796493650219
  7.6562822864462206  5.4530027106953485  7.6430367182959085
  7.6389210328273824  7.6468258771774247  5.4667345456459620
  0.0073632557595362  0.0036067646975731  0.0050808708133049
 -0.0051657659369731  2.1808070009904923  2.1980732702856769
  2.1807376460875836  0.0040206192690933  2.1708970673189825
  2.1726431225598604  2.1887729296899434 -0.0105097810836770
 -0.0061109951679523 -0.0039210401603325  4.3778264012764811
 -0.0066109002698053  2.1700031499776609  6.5589632102521529
  2.1911597638509828  0.0089641555136904  6.5678220704544135
  2.1929974381686246  2.1701908019606266  4.3890975526527791
 -0.0035582081834296  4.3777859014643692  0.0029246402208503
  0.0125654034562572  6.5564928727721652  2.1787218751961146
  2.1802460520181719  4.3655841762642265  2.1890675824536849
  2.1817370093368025  6.5552918536404281  0.0019938245273084
  0.0039182573237713  4.3681176642422317  4.3815516125125260
  0.0101042455251779  6.5535072021001080  6.5496522418104934
  2.1831183606239133  4.3729085814424211  6.5525927797538346
  2.1825048158224329  6.5598644068937153  4.3763467046424109
  4.3637424811616441  0.0011673031292198  0.0072080082913645
  4.3839319875334333  2.1946387837613455  2.1876770474133780
  6.5515290030576638 -0.0046654728529677  2.1960136368106897
  6.5533130289702788  2.1754451354652011  0.0025925396305576
  4.3733416790937136  0.0023231267571742  4.3600959933992076
  4.3555403829218866  2.1907835330937511  6.5508272982170350
  6.5599236763028115 -0.0017475197840395  6.5531445717342169
  6.5742108332207616  2.1804612309461953  4.3676357369675713
  4.3676090366421638  4.3777828934889556 -0.0015177720308765
  4.3618348224717547  6.5657316211901344  2.1847501572641170
  6.5627661362296434  4.3730042606967752  2.1964957423993470
  6.5512338153111509  6.5602320645443664  0.0101018052863773
  4.3630042325453129  4.3757176046852182  4.3634278950342305
  4.3694418287808832  6.5560680257384600  6.5538009833165010
  6.5616406129495815  4.3582249242517497  6.5412624144005633
  6.5606441780527573  6.5575299256304698  4.3797246701004680
