 C Si                                   
   1.00000000000000     
     8.7433155800000009    0.0000000000000000    0.0000000000000000
     0.0000000000000000    8.7433155800000009    0.0000000000000000
     0.0000000000000000    0.0000000000000000    8.7433155800000009
   C    Si
    32    32
Direct
  0.1267685783303918  0.1230955422407263  0.1272502570372964
  0.1297284614046248  0.3734196704278645  0.3783937383057463
  0.3744968328250025  0.1259829967179726  0.3759796064426695
  0.3741436949483301  0.3742353131543226  0.1285983695960127
  0.1290473627149851  0.1279893785136963  0.6272170443174261
  0.1258938440706387  0.3684681064004423  0.8771075066293363
  0.3729070070102125  0.1287898381369246  0.8752667351166465
  0.3770137985540956  0.3745904781404690  0.6262027055910266
  0.1248808059920208  0.6249629314604874  0.1244573152570041
  0.1261910771365322  0.8735301967239195  0.3801045366605109
  0.3738447998373857  0.6289045372109001  0.3716980906466887
  0.3697032608552604  0.8769600169596004  0.1241813159941003
  0.1308309063273754  0.6249067938553452  0.6245426289076903
  0.1226938708900107  0.8754281690514389  0.8781444152730771
  0.3740850985704256  0.6176364109070320  0.8710362730263910
  0.3747862759846186  0.8751598200258712  0.6263209495598119
  0.6290960697655663  0.1247328261342417  0.1241399120527049
  0.6259930864831276  0.3798571612712038  0.3686426053332994
  0.8716562060440793  0.1222330748019118  0.3701325222806986
  0.8743204914059319  0.3761679917814789  0.1283334121643236
  0.6279109371314604  0.1240213691422412  0.6266699963604481
  0.6263091745358835  0.3798517394468774  0.8780858387720372
  0.8755692701144469  0.1195364202932794  0.8702643483230830
  0.8732396190254832  0.3799697886946944  0.6221056130552753
  0.6306676719161146  0.6244673881382852  0.1272753457482594
  0.6265925311441904  0.8755654671991167  0.3815375047402512
  0.8723029952475727  0.6203283192476263  0.3743635249444424
  0.8800482140269779  0.8716178374270172  0.1232715626319489
  0.6248713488990987  0.6241407606919154  0.6238851795615616
  0.6217798473009850  0.8706350938700638  0.8675772357437523
  0.8763181719115352  0.6215765044835990  0.8772828223476594
  0.8723336039504090  0.8774357252554168  0.6211468693064859
  0.9979165230636156  0.9985322277784832  0.0001829533854405
  0.9972696918742585  0.2571285902260243  0.2512544586690737
  0.2557811456207091  0.9985914930441524  0.2510014882681233
  0.2457007548392198  0.2483270343909396  0.9965067069346532
  0.9990411993667792  0.0009204202019504  0.5004115173961523
  0.0034555797426989  0.2460562007543814  0.7490737315225928
  0.2500195101643854  0.9962571680323080  0.7506260834835103
  0.2607408838203327  0.2493827641276596  0.4992551024500074
  0.0044536259752306  0.4960879927824706  0.0010507556869115
  0.9956512022911141  0.7479323970569070  0.2439673580934425
  0.2486203642905451  0.4981979127016558  0.2502277331941087
  0.2525953069996305  0.7515460197508617  0.0001612442358763
  0.0000370650490780  0.4968522282093417  0.4973773481249992
  0.9990731250699127  0.7486932165635238  0.7475235050369733
  0.2487333512030787  0.5006405675038863  0.7476833107678544
  0.2554838385368257  0.7471920104349294  0.4969192038654455
  0.5014951029050465  0.9978699508726976  0.9961408842622319
  0.4959407856161491  0.2462184552325439  0.2506011332686242
  0.7515294408246334  0.9968654095012397  0.2491502550906119
  0.7477121579909820  0.2459528474244337  0.9959543872860763
  0.5027904391710365  0.9996347612743719  0.5022527331438909
  0.5024364265829320  0.2466154519317243  0.7393089405161533
  0.7479477848198925  0.9998665805771267  0.7515199364480338
  0.7518569563403332  0.2538882829619382  0.5066448477214749
  0.4977504098807870  0.4973215088982883  0.9999739245568122
  0.4963254232382113  0.7509790603958493  0.2465004090220759
  0.7498697870329778  0.5025707195248117  0.2489306115237255
  0.7512906473310892  0.7505930488126822  0.0004145044921842
  0.4998447711445380  0.4998308671318270  0.5023704466711862
  0.4964804224570400  0.7471656167124792  0.7483156070723282
  0.7523174045582124  0.5043362249536258  0.7449782800494944
  0.7560200690119458  0.7491316347433923  0.4984440806138721
 
  0.00000000E+00  0.00000000E+00  0.00000000E+00
  0.00000000E+00  0.00000000E+00  0.00000000E+00
  0.00000000E+00  0.00000000E+00  0.00000000E+00
  0.00000000E+00  0.00000000E+00  0.00000000E+00
  0.00000000E+00  0.00000000E+00  0.00000000E+00
  0.00000000E+00  0.00000000E+00  0.00000000E+00
  0.00000000E+00  0.00000000E+00  0.00000000E+00
  0.00000000E+00  0.00000000E+00  0.00000000E+00
  0.00000000E+00  0.00000000E+00  0.00000000E+00
  0.00000000E+00  0.00000000E+00  0.00000000E+00
  0.00000000E+00  0.00000000E+00  0.00000000E+00
  0.00000000E+00  0.00000000E+00  0.00000000E+00
  0.00000000E+00  0.00000000E+00  0.00000000E+00
  0.00000000E+00  0.00000000E+00  0.00000000E+00
  0.00000000E+00  0.00000000E+00  0.00000000E+00
  0.00000000E+00  0.00000000E+00  0.00000000E+00
  0.00000000E+00  0.00000000E+00  0.00000000E+00
  0.00000000E+00  0.00000000E+00  0.00000000E+00
  0.00000000E+00  0.00000000E+00  0.00000000E+00
  0.00000000E+00  0.00000000E+00  0.00000000E+00
  0.00000000E+00  0.00000000E+00  0.00000000E+00
  0.00000000E+00  0.00000000E+00  0.00000000E+00
  0.00000000E+00  0.00000000E+00  0.00000000E+00
  0.00000000E+00  0.00000000E+00  0.00000000E+00
  0.00000000E+00  0.00000000E+00  0.00000000E+00
  0.00000000E+00  0.00000000E+00  0.00000000E+00
  0.00000000E+00  0.00000000E+00  0.00000000E+00
  0.00000000E+00  0.00000000E+00  0.00000000E+00
  0.00000000E+00  0.00000000E+00  0.00000000E+00
  0.00000000E+00  0.00000000E+00  0.00000000E+00
  0.00000000E+00  0.00000000E+00  0.00000000E+00
  0.00000000E+00  0.00000000E+00  0.00000000E+00
  0.00000000E+00  0.00000000E+00  0.00000000E+00
  0.00000000E+00  0.00000000E+00  0.00000000E+00
  0.00000000E+00  0.00000000E+00  0.00000000E+00
  0.00000000E+00  0.00000000E+00  0.00000000E+00
  0.00000000E+00  0.00000000E+00  0.00000000E+00
  0.00000000E+00  0.00000000E+00  0.00000000E+00
  0.00000000E+00  0.00000000E+00  0.00000000E+00
  0.00000000E+00  0.00000000E+00  0.00000000E+00
  0.00000000E+00  0.00000000E+00  0.00000000E+00
  0.00000000E+00  0.00000000E+00  0.00000000E+00
  0.00000000E+00  0.00000000E+00  0.00000000E+00
  0.00000000E+00  0.00000000E+00  0.00000000E+00
  0.00000000E+00  0.00000000E+00  0.00000000E+00
  0.00000000E+00  0.00000000E+00  0.00000000E+00
  0.00000000E+00  0.00000000E+00  0.00000000E+00
  0.00000000E+00  0.00000000E+00  0.00000000E+00
  0.00000000E+00  0.00000000E+00  0.00000000E+00
  0.00000000E+00  0.00000000E+00  0.00000000E+00
  0.00000000E+00  0.00000000E+00  0.00000000E+00
  0.00000000E+00  0.00000000E+00  0.00000000E+00
  0.00000000E+00  0.00000000E+00  0.00000000E+00
  0.00000000E+00  0.00000000E+00  0.00000000E+00
  0.00000000E+00  0.00000000E+00  0.00000000E+00
  0.00000000E+00  0.00000000E+00  0.00000000E+00
  0.00000000E+00  0.00000000E+00  0.00000000E+00
  0.00000000E+00  0.00000000E+00  0.00000000E+00
  0.00000000E+00  0.00000000E+00  0.00000000E+00
  0.00000000E+00  0.00000000E+00  0.00000000E+00
  0.00000000E+00  0.00000000E+00  0.00000000E+00
  0.00000000E+00  0.00000000E+00  0.00000000E+00
  0.00000000E+00  0.00000000E+00  0.00000000E+00
  0.00000000E+00  0.00000000E+00  0.00000000E+00
