 C Si 
 1.0000000000000000
     8.7433155800000009    0.0000000000000000    0.0000000000000000
     0.0000000000000000    8.7433155800000009    0.0000000000000000
     0.0000000000000000    0.0000000000000000    8.7433155800000009
 C   Si 
  32  32
Cartesian
  1.1083776859705812  1.0762631723018872  1.1125891549132145
  1.1342568777684923  3.2649260223304246  3.3084158675030775
  3.2743439930994800  1.1015090980193543  3.2873083507724772
  3.2712563972004767  3.2720574440883983  1.1243761284514160
  1.1283018169838213  1.1190515272333259  5.4839565556220808
  1.1007296082889142  3.2216329354241040  7.6688277280472290
  3.2604436442835381  1.1260501983282543  7.6527332818011100
  3.2963506187730345  3.2751627636452252  5.4750878720321632
  1.0918722966729886  5.4642481355609709  1.0881695835315239
  1.1033284107848447  7.6375501786166851  3.3233739174125301
  3.2686430629201904  5.4987108385287815  3.2498737070074473
  3.2324322806125774  7.6675381793199184  1.0857564348761488
  1.1438959016376431  5.4637573067632692  5.4605732977027674
  1.0727512329231568  7.6541447496383030  7.6778937475470794
  3.2707440705766624  5.4001900542587435  7.6157450166967600
  3.2768746859864737  7.6517984894221946  5.4761217163666700
  5.5003854680980426  1.0905784620769199  1.0853944271502616
  5.4732551060202077  3.3212110363171155  3.2231586346624357
  7.6211652867088633  1.0687223473068812  3.2361854487215571
  7.6444599744227562  3.2889554632403115  1.1220595220109220
  5.4900234794738827  1.0843579690742593  5.4791735426968309
  5.4760187636165085  3.3211636315959803  7.6773815947129229
  7.6553784407608898  1.0451446459276696  7.6089958354117728
  7.6350095660987636  3.3221957734236547  5.4392656990316492
  5.5141264816665210  5.4599154439113589  1.1128085134306327
  5.4784962398646195  7.6553451906720049  3.3359028095497898
  7.6268203688287572  5.4237262583930130  3.2731784402304491
  7.6945392608532464  7.6208298177815452  1.0778021741308490
  5.4634474003250864  5.4570596370706470  5.4548250105916942
  5.4364174262367086  7.6122373807288684  7.5855015621316557
  7.6619263255112386  5.4346395358133721  7.6703605686986895
  7.6270879903771815  7.6716974470743144  5.4308830998756310
 -0.0182164963584375 -0.0128331957323001  0.0015996191853115
 -0.0238719455740248  2.2481564089866395  2.1967970230257934
  2.2363752755758237 -0.0123150208116004  2.1945852229778580
  2.1482392378035358  2.1712016287255169 -0.0305429636837529
 -0.0083830965145805  0.0080475242918712  4.3752558164612489
  0.0302132242022882  2.1513470136113915  6.5493880273902372
  2.1859994785242649 -0.0327247610564405  6.5629607304757789
  2.2797398318492759  2.1804322069808273  4.3651449156456659
  0.0389394573767019  4.3374538763459318  0.0091870885681410
 -0.0380229107623683  6.5394089799744259  2.1330836030298084
  2.1737663046067812  4.3559015720478831  2.1878200381841109
  2.2085204831247705  6.5710040235746776  0.0014098092397118
  0.0003240714210701  4.3441358278604749  4.3487271170003750
 -0.0081039600169170  6.5460610650201856  6.5358339080059578
  2.1747541848394691  4.3772584738367701  6.5372311399425946
  2.2337758259172271  6.5329355460872121  4.3447214171579684
  4.3847299465233798 -0.0186236917208904 -0.0337414667550431
  4.3361667976351246  2.1527656557182637  2.1910847928732378
  6.5708590687907096 -0.0274067139447480  2.1783993070947418
  6.5374833603180029  2.1504433628314019 -0.0353720686722968
  4.3960554802791876 -0.0031933974401789  4.3913541467945478
  4.3929602365020779  2.1562367231433588  6.4640113780481538
  6.5395435200422485 -0.0011665281186791  6.5707759690267062
  6.5737226403018401  2.2198253800005343  4.4297557906098852
  4.3519889136620691  4.3482388970195318 -0.0002279858286720
  4.3395298057487661  6.5660469190127930  2.1552308666790707
  6.5563481919367304  4.3941344020730897  2.1764788940743300
  6.5687712219182002  6.5626718979236207  0.0036241435845016
  4.3703005751295665  4.3701790079586340  4.3923833533117369
  4.3408850128336303  6.5327047774425520  6.5427595060726240
  6.5777484843789589  4.4095707731954503  6.5135802027183374
  6.6101220481847971  6.5498942935227449  4.3580538957900545
