 C Si                                   
   1.00000000000000     
     8.7433155800000009    0.0000000000000000    0.0000000000000000
     0.0000000000000000    8.7433155800000009    0.0000000000000000
     0.0000000000000000    0.0000000000000000    8.7433155800000009
   C    Si
    32    32
Direct
  0.1215497347282550  0.1253582747802824  0.1212172812663894
  0.1162776761636053  0.3753664513129564  0.3776840612014993
  0.3707457181823059  0.1204494208789413  0.3790266250672758
  0.3801589174212552  0.3712469805160197  0.1283257124519821
  0.1216255953185765  0.1224258753761802  0.6257253809372330
  0.1222687021426836  0.3737845915236875  0.8792443071375047
  0.3732548527704367  0.1228524123077293  0.8771269982596053
  0.3763211017886405  0.3746479640225857  0.6211549482634524
  0.1227914749753722  0.6273582368526291  0.1219084283496201
  0.1245217440571693  0.8751572475821376  0.3695113108242296
  0.3727634428814071  0.6216383429898755  0.3749344775621708
  0.3790700806103544  0.8711647942142662  0.1225790603109331
  0.1248373746593288  0.6236895367029902  0.6262869582995094
  0.1311450927975386  0.8742735934409893  0.8731731344703206
  0.3718348140642718  0.6237134060037235  0.8727969873333450
  0.3732024025505964  0.8742447943962617  0.6260166944260206
  0.6282555465424338  0.1198101356445278  0.1245047228067193
  0.6237789688705959  0.3752182066350187  0.3783499885505108
  0.8755860639951649  0.1234692995908304  0.3716968602665247
  0.8771379147764407  0.3653270294791895  0.1246585537956477
  0.6268084057806362  0.1219426002233206  0.6226890630704034
  0.6224152841633526  0.3792272413407929  0.8717391783599311
  0.8751770512499277  0.1233742226109129  0.8698749471225824
  0.8710861867602802  0.3784513155194063  0.6183139566001969
  0.6233383671753643  0.6287144943289178  0.1239254996473775
  0.6305944247759001  0.8824086162327944  0.3739010303965671
  0.8757644493711325  0.6264818383490720  0.3814884405095356
  0.8814129673640068  0.8713014769702667  0.1217583287768349
  0.6268278145932840  0.6314378885840455  0.6284736311799506
  0.6292949109635586  0.8727478884844260  0.8728155143856071
  0.8772833321096840  0.6273348040169111  0.8787909165130117
  0.8759212473272555  0.8724191632976712  0.6257435973260144
  0.0018107558922296  0.0015174093843768  0.9979220604389454
  0.0009618952852151  0.2501600892136864  0.2502819658133433
  0.2429167581547418  0.9975319288262696  0.2523803407012011
  0.2470701853579484  0.2515895160466357  0.0021935436398692
  0.9972515748760600  0.9987539573384296  0.4973384500439550
  0.9945090073653375  0.2469355346128808  0.7502881201655143
  0.2489654997551511  0.9994831381912377  0.7501720606153768
  0.2496385592527943  0.2500418895621763  0.4946555458848394
  0.9925772221454068  0.5092350802579872  0.0005057441491303
  0.0035398873928187  0.7461137693711137  0.2507924444297558
  0.2438640346778200  0.5036260224128739  0.2530242325875278
  0.2524669654445688  0.7506861208894549  0.0063603655092734
  0.0022354097822799  0.5017487717210329  0.5038696785164021
  0.9949667412469267  0.7490696074681793  0.7523351129732276
  0.2531541662331946  0.5017156412484951  0.7526293813999700
  0.2513710020368620  0.7478130712688156  0.5004675336453062
  0.4994056752268534  0.0005967896132475  0.0001950527333960
  0.4976843944635334  0.2460841068988202  0.2544331780786990
  0.7486193925358222  0.0009138298628315  0.2537952932214935
  0.7553858234527695  0.2530187859103421  0.9989964207050903
  0.5032778865930325  0.9978883370524372  0.5046987965090395
  0.5022578486462450  0.2456280561902915  0.7486484097800528
  0.7512601015748714  0.9992172028703195  0.7480411280246599
  0.7489787658205742  0.2547006302593999  0.5005658561498478
  0.5050231879472236  0.5041835908138879  0.9954405273705689
  0.5044023904890196  0.7531005374361683  0.2526053491107163
  0.7492431330872904  0.5026955753257383  0.2454926165179998
  0.7461339821145430  0.7526672890589907  0.9973532971005810
  0.4995600535502831  0.4950920791243050  0.4993105585671032
  0.4956748357956400  0.7516422703939512  0.7459683720071268
  0.7512575248490521  0.5016177007799882  0.7537353182197322
  0.7450858140224881  0.7579981240477807  0.5032768702895041
 
  0.00000000E+00  0.00000000E+00  0.00000000E+00
  0.00000000E+00  0.00000000E+00  0.00000000E+00
  0.00000000E+00  0.00000000E+00  0.00000000E+00
  0.00000000E+00  0.00000000E+00  0.00000000E+00
  0.00000000E+00  0.00000000E+00  0.00000000E+00
  0.00000000E+00  0.00000000E+00  0.00000000E+00
  0.00000000E+00  0.00000000E+00  0.00000000E+00
  0.00000000E+00  0.00000000E+00  0.00000000E+00
  0.00000000E+00  0.00000000E+00  0.00000000E+00
  0.00000000E+00  0.00000000E+00  0.00000000E+00
  0.00000000E+00  0.00000000E+00  0.00000000E+00
  0.00000000E+00  0.00000000E+00  0.00000000E+00
  0.00000000E+00  0.00000000E+00  0.00000000E+00
  0.00000000E+00  0.00000000E+00  0.00000000E+00
  0.00000000E+00  0.00000000E+00  0.00000000E+00
  0.00000000E+00  0.00000000E+00  0.00000000E+00
  0.00000000E+00  0.00000000E+00  0.00000000E+00
  0.00000000E+00  0.00000000E+00  0.00000000E+00
  0.00000000E+00  0.00000000E+00  0.00000000E+00
  0.00000000E+00  0.00000000E+00  0.00000000E+00
  0.00000000E+00  0.00000000E+00  0.00000000E+00
  0.00000000E+00  0.00000000E+00  0.00000000E+00
  0.00000000E+00  0.00000000E+00  0.00000000E+00
  0.00000000E+00  0.00000000E+00  0.00000000E+00
  0.00000000E+00  0.00000000E+00  0.00000000E+00
  0.00000000E+00  0.00000000E+00  0.00000000E+00
  0.00000000E+00  0.00000000E+00  0.00000000E+00
  0.00000000E+00  0.00000000E+00  0.00000000E+00
  0.00000000E+00  0.00000000E+00  0.00000000E+00
  0.00000000E+00  0.00000000E+00  0.00000000E+00
  0.00000000E+00  0.00000000E+00  0.00000000E+00
  0.00000000E+00  0.00000000E+00  0.00000000E+00
  0.00000000E+00  0.00000000E+00  0.00000000E+00
  0.00000000E+00  0.00000000E+00  0.00000000E+00
  0.00000000E+00  0.00000000E+00  0.00000000E+00
  0.00000000E+00  0.00000000E+00  0.00000000E+00
  0.00000000E+00  0.00000000E+00  0.00000000E+00
  0.00000000E+00  0.00000000E+00  0.00000000E+00
  0.00000000E+00  0.00000000E+00  0.00000000E+00
  0.00000000E+00  0.00000000E+00  0.00000000E+00
  0.00000000E+00  0.00000000E+00  0.00000000E+00
  0.00000000E+00  0.00000000E+00  0.00000000E+00
  0.00000000E+00  0.00000000E+00  0.00000000E+00
  0.00000000E+00  0.00000000E+00  0.00000000E+00
  0.00000000E+00  0.00000000E+00  0.00000000E+00
  0.00000000E+00  0.00000000E+00  0.00000000E+00
  0.00000000E+00  0.00000000E+00  0.00000000E+00
  0.00000000E+00  0.00000000E+00  0.00000000E+00
  0.00000000E+00  0.00000000E+00  0.00000000E+00
  0.00000000E+00  0.00000000E+00  0.00000000E+00
  0.00000000E+00  0.00000000E+00  0.00000000E+00
  0.00000000E+00  0.00000000E+00  0.00000000E+00
  0.00000000E+00  0.00000000E+00  0.00000000E+00
  0.00000000E+00  0.00000000E+00  0.00000000E+00
  0.00000000E+00  0.00000000E+00  0.00000000E+00
  0.00000000E+00  0.00000000E+00  0.00000000E+00
  0.00000000E+00  0.00000000E+00  0.00000000E+00
  0.00000000E+00  0.00000000E+00  0.00000000E+00
  0.00000000E+00  0.00000000E+00  0.00000000E+00
  0.00000000E+00  0.00000000E+00  0.00000000E+00
  0.00000000E+00  0.00000000E+00  0.00000000E+00
  0.00000000E+00  0.00000000E+00  0.00000000E+00
  0.00000000E+00  0.00000000E+00  0.00000000E+00
  0.00000000E+00  0.00000000E+00  0.00000000E+00
