 C Si 
 1.0000000000000000
     8.7433155800000009    0.0000000000000000    0.0000000000000000
     0.0000000000000000    8.7433155800000009    0.0000000000000000
     0.0000000000000000    0.0000000000000000    8.7433155800000009
 C   Si 
  32  32
Cartesian
  1.0627476893944403  1.0960469569683844  1.0598409438616869
  1.0166524176074150  3.2819473419738845  3.3022109366207308
  3.2415468140016541  1.0531272981728261  3.3139493961855284
  3.3238493855652047  3.2459295087736821  1.1219922009959931
  1.0634109624756662  1.0704080635717172  5.4709144719499330
  1.0690338483905133  3.2681166426329620  7.6875104492216479
  3.2634849695383603  1.0741374105707588  7.6689981495218467
  3.2902941523513958  3.2756653808539364  5.4309537367459173
  1.0736046162433339  5.4851910465149487  1.0658838609225429
  1.0887329048637997  7.6517759977348465  3.2307540009156916
  3.2591884177994510  5.4351802093887631  3.2781704591484688
  3.3143293417123956  7.6168687180010943  1.0717474077983562
  1.0914925628252343  5.4531144433382259  5.4758245200509208
  1.1466429330972898  7.6440499307151608  7.6344282706517763
  3.2510691229945796  5.4533231401671989  7.6311394975286886
  3.2630263807140882  7.6437981315787322  5.4734615177151040
  5.4930365083058588  1.0475378256227410  1.0885840826995610
  5.4538963770026143  3.2806511919716099  3.3080333495865037
  7.6555252749598122  1.0795310507641700  3.2498629494053861
  7.6690935960735969  3.1941695086405391  1.0899290755817785
  5.4803836999367679  1.0661826363982676  5.4443669866390758
  5.4419732512555861  3.3157034475754021  7.6218907398507696
  7.6519491474519397  1.0786997627243771  7.6055911778285274
  7.6161814282239648  3.3089192832523371  5.4061140500739402
  5.4500440573361377  5.4970492336378420  1.0835197518262059
  5.5134860588042605  7.7151770022344621  3.2691347044443795
  7.6570849545967690  5.4775284178244696  3.3354738254969041
  7.7064717299677614  7.6180637784711571  1.0645714929892638
  5.4805533973108265  5.5208607290591605  5.4949432911148106
  5.5021239994423938  7.6307102107979645  7.6313014853933980
  7.6703650257089100  5.4849861658372943  7.6835463119106961
  7.6584558886094092  7.6278360627510766  5.4710737435858183
  0.0158320102041222  0.0132671891116497 -0.0181680813384977
  0.0084101540335291  2.1872286055162276  2.1882942110888441
  2.1238978762174270 -0.0215791251458209  2.2066409649385199
  2.1602126009936415  2.1997265354151883  0.0191788442818780
 -0.0240303482066061 -0.0108945442162821  4.3483870188023399
 -0.0480094814523210  2.1590353070364126  6.5600058105320587
  2.1767839328917140 -0.0045190859052752  6.5589910652591561
  2.1826687044837256  2.1861951486616338  4.3249295410683217
 -0.0648996892629169  4.4524030111022288  0.0044218806985584
  0.0309503525930933  6.5235081441949765  2.1927574867289810
  2.1321802138002646  4.4033612482558935  2.2122707149000482
  2.2073983524068326  6.5634856564625625  0.0556106828517341
  0.0195448931771145  4.3869478530343944  4.4054916104620805
 -0.0440073696739374  6.5493519694809939  6.5779033146398938
  2.2134067657686236  4.3866581828576825  6.5804761963601157
  2.1978159984691210  6.5383656769522815  4.3757455842052018
  4.3664614209513459  0.0052179199235178  0.0017054076028487
  4.3514117200358520  2.1515910058388119  2.2245895699643903
  6.5454155982485620  0.0079899028771686  2.2190123413541460
  6.6045766391057095  2.2122230928825757 -0.0087746104849549
  4.4003173869183074 -0.0184629355491611  4.4127408507247363
  4.3913988732459810  2.1476036105737220  6.5456693051721606
  6.5685041507319832 -0.0068442423399108  6.5403596491388125
  6.5485577122881855  2.2269279887828355  4.3766052488909812
  4.4155771074402370  4.4082362447434207 -0.0398649080774642
  4.4101492793518986  6.5845956622720543  2.2086082844710728
  6.5508691587301238  4.3952260557425804  2.1464194187767784
  6.5236848705895296  6.5808076349858347 -0.0231409586961275
  4.3678111993518041  4.3287462889421588  4.3656297859782791
  4.3338415144259717  6.5718455733220011  6.5222368891571767
  6.5684816216049260  4.3858018584334371  6.5901457509868342
  6.5145204061797815  6.6274168075977613  4.4003085010558598
