 C Si                                   
   1.00000000000000     
     8.7433155800000009    0.0000000000000000    0.0000000000000000
     0.0000000000000000    8.7433155800000009    0.0000000000000000
     0.0000000000000000    0.0000000000000000    8.7433155800000009
   C    Si
    32    32
Direct
  0.1260963679521012  0.1191735457525454  0.1277934076084861
  0.1278987673684213  0.3759419769672050  0.3757379704188963
  0.3802732164375726  0.1326852561233522  0.3700463864773340
  0.3764374565056059  0.3699500466122672  0.1354307905020633
  0.1232730449085437  0.1357709560147811  0.6234313892128540
  0.1200693621249300  0.3762718005142958  0.8769811416159783
  0.3745096975875768  0.1309958134407907  0.8792865164595014
  0.3774491587059075  0.3726056119805747  0.6273352577916853
  0.1259296911677410  0.6260679344346158  0.1273550567601802
  0.1327801759886214  0.8796056796653318  0.3794944373437161
  0.3783186973707586  0.6228467964086661  0.3712511823702371
  0.3723782782620901  0.8756164928146362  0.1306987942940125
  0.1235185894783797  0.6223484648622133  0.6254159413168665
  0.1308754087425683  0.8764470598584069  0.8701168925315343
  0.3759738558790033  0.6210622183725363  0.8724203579387648
  0.3762585680352615  0.8745005918792899  0.6238334799994121
  0.6228808517373352  0.1268522008704096  0.1228083945995593
  0.6232086010620890  0.3769701244813888  0.3719857194766405
  0.8773817774763017  0.1219090777077696  0.3726098767098449
  0.8715917617304285  0.3672037480677943  0.1280888526190225
  0.6216948706908241  0.1273162055321748  0.6244100268110628
  0.6069116846619522  0.3759948808240736  0.8751486060828242
  0.8772615086548612  0.1220171574538043  0.8698785990589641
  0.8766744169018210  0.3749705869456221  0.6278406998765504
  0.6281332059201503  0.6170080003719391  0.1193061574357870
  0.6303770319879476  0.8813411971465044  0.3750026471318506
  0.8780967254818250  0.6245604610791631  0.3780758101918664
  0.8698934277134640  0.8684962971854588  0.1263214896043436
  0.6282076126598710  0.6245949881397976  0.6305688088963279
  0.6267222086826081  0.8680152850403999  0.8767571084226162
  0.8775500025750844  0.6241620150748730  0.8696303835708363
  0.8783491061699991  0.8795597117121758  0.6256293296951725
  0.0048170228365052  0.9943552101484769  0.0061793099263951
  0.0046338325784987  0.2544982175555859  0.2546268296500074
  0.2502179839639922  0.0060132369145336  0.2499679358550750
  0.2564595395433713  0.2523997690287203  0.9973931789079487
  0.0024228582936914  0.9925823281204273  0.5006444156945307
  0.0027987318123337  0.2559998081078945  0.7552034115471429
  0.2454037902976154  0.0025616172319118  0.7481890842807744
  0.2465448851520193  0.2450334717701139  0.4947345649556851
  0.9933928218235764  0.4953448113946166  0.0042830946699084
  0.9990346662556107  0.7425237351270013  0.2560832693496380
  0.2497657797021020  0.5003046949881451  0.2474757917225290
  0.2466508105635583  0.7414963238588683  0.9984462262351741
  0.9951229808417352  0.5026803562031645  0.4899693263718561
  0.0041319336954970  0.7519652771421832  0.7473496364374697
  0.2526225037937024  0.5039868927595634  0.7459986066152027
  0.2530071190784113  0.7473496857523543  0.5142631755519815
  0.4964615753548429  0.0049145814653713  0.9962469515741574
  0.4953584529700592  0.2477650441140966  0.2529784808498334
  0.7480269342238302  0.0058630187741073  0.2487793087939565
  0.7465142407642915  0.2467684188279478  0.0017171794152802
  0.5009303622092318  0.9954083718129070  0.5005248611742914
  0.5005835941672601  0.2544931087552627  0.7499775171259060
  0.7523755139216775  0.0048557869763712  0.7530315334420763
  0.7500262584660931  0.2513532400386396  0.4955378607866550
  0.5092283030793183  0.4973082655379955  0.9982953159482335
  0.4932898015672578  0.7453313228044181  0.2504717435187445
  0.7510727412757703  0.5091953151817847  0.2540511090031288
  0.7487427366028356  0.7522051982478217  0.0081022932962966
  0.5006770991308258  0.4949842322458338  0.5011417822574273
  0.4947207660304827  0.7560489801306360  0.7403798851931711
  0.7510520126919644  0.4984984322373549  0.7517288103362745
  0.7572628644550008  0.7516049270495913  0.5029486028428352
 
  0.00000000E+00  0.00000000E+00  0.00000000E+00
  0.00000000E+00  0.00000000E+00  0.00000000E+00
  0.00000000E+00  0.00000000E+00  0.00000000E+00
  0.00000000E+00  0.00000000E+00  0.00000000E+00
  0.00000000E+00  0.00000000E+00  0.00000000E+00
  0.00000000E+00  0.00000000E+00  0.00000000E+00
  0.00000000E+00  0.00000000E+00  0.00000000E+00
  0.00000000E+00  0.00000000E+00  0.00000000E+00
  0.00000000E+00  0.00000000E+00  0.00000000E+00
  0.00000000E+00  0.00000000E+00  0.00000000E+00
  0.00000000E+00  0.00000000E+00  0.00000000E+00
  0.00000000E+00  0.00000000E+00  0.00000000E+00
  0.00000000E+00  0.00000000E+00  0.00000000E+00
  0.00000000E+00  0.00000000E+00  0.00000000E+00
  0.00000000E+00  0.00000000E+00  0.00000000E+00
  0.00000000E+00  0.00000000E+00  0.00000000E+00
  0.00000000E+00  0.00000000E+00  0.00000000E+00
  0.00000000E+00  0.00000000E+00  0.00000000E+00
  0.00000000E+00  0.00000000E+00  0.00000000E+00
  0.00000000E+00  0.00000000E+00  0.00000000E+00
  0.00000000E+00  0.00000000E+00  0.00000000E+00
  0.00000000E+00  0.00000000E+00  0.00000000E+00
  0.00000000E+00  0.00000000E+00  0.00000000E+00
  0.00000000E+00  0.00000000E+00  0.00000000E+00
  0.00000000E+00  0.00000000E+00  0.00000000E+00
  0.00000000E+00  0.00000000E+00  0.00000000E+00
  0.00000000E+00  0.00000000E+00  0.00000000E+00
  0.00000000E+00  0.00000000E+00  0.00000000E+00
  0.00000000E+00  0.00000000E+00  0.00000000E+00
  0.00000000E+00  0.00000000E+00  0.00000000E+00
  0.00000000E+00  0.00000000E+00  0.00000000E+00
  0.00000000E+00  0.00000000E+00  0.00000000E+00
  0.00000000E+00  0.00000000E+00  0.00000000E+00
  0.00000000E+00  0.00000000E+00  0.00000000E+00
  0.00000000E+00  0.00000000E+00  0.00000000E+00
  0.00000000E+00  0.00000000E+00  0.00000000E+00
  0.00000000E+00  0.00000000E+00  0.00000000E+00
  0.00000000E+00  0.00000000E+00  0.00000000E+00
  0.00000000E+00  0.00000000E+00  0.00000000E+00
  0.00000000E+00  0.00000000E+00  0.00000000E+00
  0.00000000E+00  0.00000000E+00  0.00000000E+00
  0.00000000E+00  0.00000000E+00  0.00000000E+00
  0.00000000E+00  0.00000000E+00  0.00000000E+00
  0.00000000E+00  0.00000000E+00  0.00000000E+00
  0.00000000E+00  0.00000000E+00  0.00000000E+00
  0.00000000E+00  0.00000000E+00  0.00000000E+00
  0.00000000E+00  0.00000000E+00  0.00000000E+00
  0.00000000E+00  0.00000000E+00  0.00000000E+00
  0.00000000E+00  0.00000000E+00  0.00000000E+00
  0.00000000E+00  0.00000000E+00  0.00000000E+00
  0.00000000E+00  0.00000000E+00  0.00000000E+00
  0.00000000E+00  0.00000000E+00  0.00000000E+00
  0.00000000E+00  0.00000000E+00  0.00000000E+00
  0.00000000E+00  0.00000000E+00  0.00000000E+00
  0.00000000E+00  0.00000000E+00  0.00000000E+00
  0.00000000E+00  0.00000000E+00  0.00000000E+00
  0.00000000E+00  0.00000000E+00  0.00000000E+00
  0.00000000E+00  0.00000000E+00  0.00000000E+00
  0.00000000E+00  0.00000000E+00  0.00000000E+00
  0.00000000E+00  0.00000000E+00  0.00000000E+00
  0.00000000E+00  0.00000000E+00  0.00000000E+00
  0.00000000E+00  0.00000000E+00  0.00000000E+00
  0.00000000E+00  0.00000000E+00  0.00000000E+00
  0.00000000E+00  0.00000000E+00  0.00000000E+00
