 C Si 
 1.0000000000000000
     8.7433155800000009    0.0000000000000000    0.0000000000000000
     0.0000000000000000    8.7433155800000009    0.0000000000000000
     0.0000000000000000    0.0000000000000000    8.7433155800000009
 C   Si 
  32  32
Cartesian
  1.1025003384970486  1.0419719193020796  1.1173380917645435
  1.1182592853951063  3.2869793443933371  3.2851956507611177
  3.3248487379353224  1.1601090670996037  3.2354323362099495
  3.2913114783610307  3.2345900063667337  1.1841141406083984
  1.0778151341429136  1.1870883150354992  5.4508573783658152
  1.0498043245475803  3.2898630957512807  7.6677228788571945
  3.2744564737785287  1.1453377365716242  7.6878794986443157
  3.3001571099712588  3.2578084524251727  5.4849901333333735
  1.1010430307715200  5.4739095252805718  1.1135054519630516
  1.1609389814364561  7.6906700432743822  3.3180396265506569
  3.3077597609270786  5.4457460989930029  3.2459662469111410
  3.2558208019825376  7.6557913237311865  1.1427408044380416
  1.0799620078059231  5.4413890290188771  5.4682089436961210
  1.1442850002977611  7.6630532335051758  7.6077065828921286
  3.2872580717795725  5.4301429700459751  7.6278465078751747
  3.2897474000111826  7.6460346496974347  5.4543729850045057
  5.4460438554787185  1.1091088242275235  1.0737525498570928
  5.4489094712561483  3.2959687625726741  3.2523885366376293
  7.6712257646166355  1.0658895384657512  3.2578457402990457
  7.6206018297373266  3.2105782515155270  1.1199212607282281
  5.4356744489171751  1.1131657634159271  5.4594139157253654
  5.3064203881888874  3.2874418995093748  7.6517004423792701
  7.6701742163563278  1.0668345137931827  7.6056231078608008
  7.6650410878851325  3.2784861748834140  5.4894093729887503
  5.4919668456369788  5.3946956626366402  1.0431313850982702
  5.5115853250543809  7.7058442203068678  3.2787664872091491
  7.6774767806522055  5.4607292100054501  3.3056361216716508
  7.6057527594667178  7.5935372063539299  1.1044686481464743
  5.4926174072436318  5.4610310909926003  5.5132620910853349
  5.4796300515066845  7.5893315653718814  7.6657640859471945
  7.6726966097437677  5.4572454708483038  7.6034528815162767
  7.6796834246552459  7.6902681309533829  5.4700746656287516
  0.0421167508156139 -0.0493541790546302  0.0540276567531024
  0.0405150605786726  2.2251582306359596  2.2262827267649441
  2.1877347975885502  0.0525756280010944  2.1855485480620973
  2.2423066877291791  2.2068108329372076 -0.0227922594684142
  0.0211838146673946 -0.0648550461120022  4.3772921197819858
  0.0244701954590385  2.2382871107067674  6.6029817542492824
  2.1456427831001683  0.0223970278537751  6.5416532773780220
  2.1556197355189854  2.1424049713491300  4.3256204297415559
 -0.0577686438897817  4.3309560069387247  0.0374484483580226
 -0.0084402175672363  6.4921193418557266  2.2390168386820326
  2.1837810330202063  4.3743218344370201  2.1637589454403985
  2.1565458748199577  6.4831363609079702 -0.0135851343658208
 -0.0426413175904287  4.3950929901510749  4.2839564449891343
  0.0361268002553371  6.5746697232562896  6.5343137199710704
  2.2087582732780828  4.4065164515804813  6.5225012398769762
  2.2121210860892004  6.5343141511466856  4.4963652350239460
  4.3407202266713156  0.0429697366953734 -0.0328140867741636
  4.3310752795378011  2.1662879703821765  2.2118706930190499
  6.5402355482588694  0.0512622233935023  2.1751560065598023
  6.5270095919663103  2.1575741609903449  0.0150138415352651
  4.3797922403990368 -0.0401460542657753  4.3762468168825350
  4.3767603379750133  2.2251135627825214  6.5572901101366465
  6.5782565528818955  0.0424556779236688  6.5839923385754169
  6.5577162710557086  2.1976606997133317  4.3326438986958502
  4.4523437560903671  4.3481231061411441 -0.0149045906287904
  4.3129884074981009  6.5166669669378932  2.1899534974571977
  6.5668660005097461  4.4520553324918950  2.2212490194633414
  6.5464940343514249  6.5767674291971403  0.0708409072112160
  4.3775778813797661  4.3278033496493595  4.3816407526003243
  4.3254997813838338  6.6103748272193243  6.4733749853280456
  6.5666847639599863  4.3585291091864473  6.5726022193480444
  6.6209882009448426  6.5715190686774649  4.3974383551750078
