INCAR created by Atomic Simulation Environment
 EDIFF = 1.00e-08
 GGA = PE
 IBRION = 1
 ISIF = 3
 ISYM = 0
 NELM = 60
 NSW = 0
 NCORE = 8
 LCHARG = .FALSE.
 LWAVE = .FALSE.
