 C Si 
 1.0000000000000000
     4.3716577900000004    0.0000000000000000    0.0000000000000000
     0.0000000000000000    4.3716577900000004    0.0000000000000000
     0.0000000000000000    0.0000000000000000    4.3716577900000004
   4   4
Cartesian
  1.0929144475000001  1.0929144475000001  1.0929144475000001
  1.0929144475000001  3.2787433425000003  3.2787433425000003
  3.2787433425000003  1.0929144475000001  3.2787433425000003
  3.2787433425000003  3.2787433425000003  1.0929144475000001
  0.0000000000000000  0.0000000000000000  0.0000000000000000
  0.0000000000000000  2.1858288950000002  2.1858288950000002
  2.1858288950000002  0.0000000000000000  2.1858288950000002
  2.1858288950000002  2.1858288950000002  0.0000000000000000
