 C Si                                   
   1.00000000000000     
     8.7433155800000009    0.0000000000000000    0.0000000000000000
     0.0000000000000000    8.7433155800000009    0.0000000000000000
     0.0000000000000000    0.0000000000000000    8.7433155800000009
   C    Si
    32    32
Direct
  0.1237581552015499  0.1214291004479335  0.1277194009568845
  0.1245023014915745  0.3768468068970421  0.3734629020013926
  0.3687991782681834  0.1174686483229976  0.3754022362436729
  0.3740936675061377  0.3729610050857985  0.1272574142140783
  0.1258140474435123  0.1275254249505196  0.6237118106261406
  0.1275574706303360  0.3808360950036587  0.8755354745675348
  0.3671049592762117  0.1253222762917616  0.8749936555239728
  0.3709983053717565  0.3711662457353455  0.6256569654618716
  0.1270648266074232  0.6224265248986711  0.1187068051309339
  0.1259451287212272  0.8730127640110155  0.3733742526009749
  0.3754870991098116  0.6272874500194234  0.3724694186310415
  0.3789297824473863  0.8803829905694940  0.1250749012544716
  0.1258160599824762  0.6255443580806812  0.6238540588727659
  0.1282280139350860  0.8745864425393322  0.8775019150973193
  0.3750932102085613  0.6331893038373622  0.8734265878064704
  0.3761297673841000  0.8748430599281178  0.6247378559686609
  0.6255097450669922  0.1257922355443739  0.1290275193916628
  0.6271230560012810  0.3737073430251172  0.3723696885602052
  0.8704521189859733  0.1245607533554107  0.3731746577634638
  0.8760945565196110  0.3757154673863994  0.1249078105189980
  0.6170572019020923  0.1273834138925025  0.6265975078718640
  0.6283315070589452  0.3761048763117927  0.8737754718850113
  0.8741782236261955  0.1281040815011210  0.8792317291444931
  0.8788701982064353  0.3745418441933097  0.6252204584008467
  0.6263879349115200  0.6294310535365852  0.1234898888929123
  0.6245559881539720  0.8770838447131624  0.3732922094893709
  0.8769300767666124  0.6203382930068244  0.3717129566853998
  0.8735764797838144  0.8766501918070730  0.1209679210029222
  0.6284203554494283  0.6290545068809479  0.6284828083959368
  0.6234350680252376  0.8751387369539643  0.8718529540259112
  0.8743253138167688  0.6238286304308645  0.8779871383073043
  0.8735980035372890  0.8783485339737140  0.6252707926324348
  0.0052946758331984  0.9995830949441284  0.0004745150912484
  0.0007999205795173  0.2468275760249554  0.2508543827905356
  0.2527776431614441  0.9972421282797654  0.2451242783013257
  0.2476417878445787  0.2476137023594873  0.0040289828411346
  0.9965838521380732  0.0030058435016258  0.4995017093183733
  0.9952307989152942  0.2479371164604984  0.7521271319117702
  0.2476507044519352  0.0033747841255263  0.7473457272390931
  0.2491979452539468  0.2442999222560118  0.5060726385639143
  0.9984528889774467  0.5085355888152705  0.9966252534486557
  0.0054837980809381  0.7488371653054458  0.2510007821866296
  0.2520341717002879  0.4988710841163808  0.2505525151093195
  0.2485343166531848  0.7494444177241846  0.0010895206674064
  0.9949090144983330  0.4970238648488134  0.5039834233293305
  0.9968270329660598  0.7505688553411858  0.7499821252561176
  0.2502223971883808  0.5030200524663897  0.7521070268156507
  0.2532426540861579  0.7532616131357699  0.4998679172435203
  0.5018546796721566  0.0024478092374949  0.9982136071904648
  0.4935385635645204  0.2546976618297094  0.2506732258833537
  0.7485391650682161  0.9991535221830006  0.2440616869498058
  0.7443330312008740  0.2505492757346772  0.0029191631853038
  0.5027161141112231  0.0013730682709223  0.5007738682487997
  0.4968978678071352  0.2508544489020963  0.7509396841268341
  0.7455312880455196  0.9956774692770978  0.7508853395662953
  0.7477059596962050  0.2498768771309798  0.5017735480854810
  0.5006539733556465  0.4971864158433306  0.0031169573252612
  0.4995378277429552  0.7464843970898585  0.2535824926544592
  0.7421733218443691  0.5032299252733949  0.2470550871137647
  0.7520589797847137  0.7487117890482082  0.9974287263062749
  0.5007386506324565  0.4977624842296109  0.4995349251492200
  0.4981287903182832  0.7505609378437654  0.7514544302323714
  0.7419119501728133  0.5015106313270508  0.7552492064695997
  0.7495134637619358  0.7481014934774137  0.5010702307316919
 
  0.00000000E+00  0.00000000E+00  0.00000000E+00
  0.00000000E+00  0.00000000E+00  0.00000000E+00
  0.00000000E+00  0.00000000E+00  0.00000000E+00
  0.00000000E+00  0.00000000E+00  0.00000000E+00
  0.00000000E+00  0.00000000E+00  0.00000000E+00
  0.00000000E+00  0.00000000E+00  0.00000000E+00
  0.00000000E+00  0.00000000E+00  0.00000000E+00
  0.00000000E+00  0.00000000E+00  0.00000000E+00
  0.00000000E+00  0.00000000E+00  0.00000000E+00
  0.00000000E+00  0.00000000E+00  0.00000000E+00
  0.00000000E+00  0.00000000E+00  0.00000000E+00
  0.00000000E+00  0.00000000E+00  0.00000000E+00
  0.00000000E+00  0.00000000E+00  0.00000000E+00
  0.00000000E+00  0.00000000E+00  0.00000000E+00
  0.00000000E+00  0.00000000E+00  0.00000000E+00
  0.00000000E+00  0.00000000E+00  0.00000000E+00
  0.00000000E+00  0.00000000E+00  0.00000000E+00
  0.00000000E+00  0.00000000E+00  0.00000000E+00
  0.00000000E+00  0.00000000E+00  0.00000000E+00
  0.00000000E+00  0.00000000E+00  0.00000000E+00
  0.00000000E+00  0.00000000E+00  0.00000000E+00
  0.00000000E+00  0.00000000E+00  0.00000000E+00
  0.00000000E+00  0.00000000E+00  0.00000000E+00
  0.00000000E+00  0.00000000E+00  0.00000000E+00
  0.00000000E+00  0.00000000E+00  0.00000000E+00
  0.00000000E+00  0.00000000E+00  0.00000000E+00
  0.00000000E+00  0.00000000E+00  0.00000000E+00
  0.00000000E+00  0.00000000E+00  0.00000000E+00
  0.00000000E+00  0.00000000E+00  0.00000000E+00
  0.00000000E+00  0.00000000E+00  0.00000000E+00
  0.00000000E+00  0.00000000E+00  0.00000000E+00
  0.00000000E+00  0.00000000E+00  0.00000000E+00
  0.00000000E+00  0.00000000E+00  0.00000000E+00
  0.00000000E+00  0.00000000E+00  0.00000000E+00
  0.00000000E+00  0.00000000E+00  0.00000000E+00
  0.00000000E+00  0.00000000E+00  0.00000000E+00
  0.00000000E+00  0.00000000E+00  0.00000000E+00
  0.00000000E+00  0.00000000E+00  0.00000000E+00
  0.00000000E+00  0.00000000E+00  0.00000000E+00
  0.00000000E+00  0.00000000E+00  0.00000000E+00
  0.00000000E+00  0.00000000E+00  0.00000000E+00
  0.00000000E+00  0.00000000E+00  0.00000000E+00
  0.00000000E+00  0.00000000E+00  0.00000000E+00
  0.00000000E+00  0.00000000E+00  0.00000000E+00
  0.00000000E+00  0.00000000E+00  0.00000000E+00
  0.00000000E+00  0.00000000E+00  0.00000000E+00
  0.00000000E+00  0.00000000E+00  0.00000000E+00
  0.00000000E+00  0.00000000E+00  0.00000000E+00
  0.00000000E+00  0.00000000E+00  0.00000000E+00
  0.00000000E+00  0.00000000E+00  0.00000000E+00
  0.00000000E+00  0.00000000E+00  0.00000000E+00
  0.00000000E+00  0.00000000E+00  0.00000000E+00
  0.00000000E+00  0.00000000E+00  0.00000000E+00
  0.00000000E+00  0.00000000E+00  0.00000000E+00
  0.00000000E+00  0.00000000E+00  0.00000000E+00
  0.00000000E+00  0.00000000E+00  0.00000000E+00
  0.00000000E+00  0.00000000E+00  0.00000000E+00
  0.00000000E+00  0.00000000E+00  0.00000000E+00
  0.00000000E+00  0.00000000E+00  0.00000000E+00
  0.00000000E+00  0.00000000E+00  0.00000000E+00
  0.00000000E+00  0.00000000E+00  0.00000000E+00
  0.00000000E+00  0.00000000E+00  0.00000000E+00
  0.00000000E+00  0.00000000E+00  0.00000000E+00
  0.00000000E+00  0.00000000E+00  0.00000000E+00
