 C Si 
 1.0000000000000000
     8.7433155800000009    0.0000000000000000    0.0000000000000000
     0.0000000000000000    8.7433155800000009    0.0000000000000000
     0.0000000000000000    0.0000000000000000    8.7433155800000009
 C   Si 
  32  32
Cartesian
  1.0820566065257524  1.0616929458117794  1.1166910282546165
  1.0885629123771337  3.2948905580161783  3.2653040096207722
  3.2245276012434094  1.0270654630440239  3.2822602209161360
  3.2708189914857759  3.2609157664991137  1.1126517323684739
  1.1000319211957046  1.1149950348160009  5.4533091912775680
  1.1152752203076084  3.3297701628718732  7.6550829556290054
  3.2097145099349760  1.0957322108228451  7.6503456607439135
  3.2437552635104958  3.2452236191079398  5.4703162938583310
  1.1109678781466712  5.4420715325517959  1.0378910587533090
  1.1011780061733920  7.6330261011163936  3.2645289199369749
  3.2830022037357995  5.4845721348932690  3.2566176709903347
  3.3131026705982403  7.6974663178132490  1.0935693328051561
  1.1000495174589766  5.4693317319879071  5.4545529125884684
  1.1211379920310907  7.6467852691109224  7.6722761657502527
  3.2795583087687459  5.5361739053305428  7.6366442931545668
  3.2886212552711926  7.6490289559243809  5.4622802295066082
  5.4690290994860540  1.0998412128781807  1.1281283205459027
  5.4831347861132160  3.2674412346318848  3.2557456995081639
  7.6106375735740794  1.0890739754688890  3.2627837992844424
  7.6599711855711092  3.2849988996464985  1.0921084057744321
  5.3951258471417400  1.1137533873199368  5.4785397529652133
  5.4937006550733463  3.2884036247708690  7.6396946967540664
  7.6432160823276627  1.1200544116503508  7.6874004758593664
  7.6842394967760033  3.2747375416972959  5.4664997748708686
  5.4767073904359203  5.5033143369222461  1.0797110695298706
  5.4606901018089342  7.6686208444468775  3.2638115911210237
  7.6672764027640969  5.4238134621171525  3.2500036854752916
  7.6379548460154076  7.6648292802367850  1.0576607083850789
  5.4944774845901216  5.5000220706814336  5.4950235304103527
  5.4508895433834494  7.6516141534711117  7.6228855164037457
  7.6445021382825376  5.4543305836962199  7.6765186254018820
  7.6381430349844912  7.6796784217625564  5.4669398629420947
  0.0462930217034360 -0.0036451324703875  0.0041488351902608
  0.0069939580656801  2.1580913910326402  2.1932990333637576
  2.2101147057291524 -0.0241129427791881  2.1431989215082208
  2.1652103019205882  2.1649647416612061  0.0352266684464191
 -0.0298684588247652  0.0262810383188102  4.3673010773199863
 -0.0416986301480648  2.1677924532093455  6.5760848705849231
  2.1652882626325756  0.0295068026238425  6.5342795406159704
  2.1788162772427904  2.1359913164537554  4.4247527853675770
 -0.0135268799074614  4.4462871366730052 -0.0295064741009505
  0.0479465771986585  6.5473196542981240  2.1945790494845725
  2.2036143001195052  4.3617873221662302  2.1906597089634938
  2.1730139629584575  6.5526290538319127  0.0095260230260970
 -0.0445120928542905  4.3456365011644573  4.4064861172570824
 -0.0277422521026580  6.5624603667673291  6.5573304004733153
  2.1877733838021372  4.3980630617818184  6.5759090853847875
  2.2141804429920473  6.5860039979458911  4.3705029487773990
  4.3878738396734596  0.0214019686430675 -0.0156189960836099
  4.3151634121444697  2.2269020348652888  2.1917151213547879
  6.5447141441811523 -0.0074010226855214  2.1339083499893348
  6.5079385884072449  2.1906313860887434  0.0255231649586297
  4.3954056328256987  0.0120051692055402  4.3784239643165934
  4.3445348692669175  2.1932996113980394  6.5657026398664344
  6.5184153261458420 -0.0377932502145695  6.5652274882235551
  6.5374291666707078  2.1847523929010277  4.3871644806076722
  4.3773756854293531  4.3470577358073328  0.0272525415441336
  4.3676168721043656  6.5267486593026574  2.2171517588409806
  6.4890555679422341  4.3998980459651404  2.1600805922800350
  6.5754889950305833  6.5462234501148684 -0.0224814573467863
  4.3781160455829093  4.3520944835042616  4.3675914938113287
  4.3552972132363754  6.5623911415888134  6.5702032275107189
  6.4867703129341505  4.3848657164174432  6.6033821537082664
  6.5532327451295016  6.5408874433423305  4.3810151550306218
