 C Si                                   
   1.00000000000000     
     8.7433155800000009    0.0000000000000000    0.0000000000000000
     0.0000000000000000    8.7433155800000009    0.0000000000000000
     0.0000000000000000    0.0000000000000000    8.7433155800000009
   C    Si
    32    32
Direct
  0.1323303932959377  0.1203854678036862  0.1261379716193645
  0.1242345285373005  0.3748295877101029  0.3766990082508102
  0.3812326416701097  0.1202685048170622  0.3722001912935511
  0.3645019697092593  0.3712199150683375  0.1309481666667978
  0.1265691366456423  0.1227952406747264  0.6289015406629304
  0.1311076947921919  0.3741517270467867  0.8777666310085266
  0.3808728867806437  0.1340108796920063  0.8651840167383185
  0.3820882805044548  0.3700405811670890  0.6172337411936795
  0.1188561698855466  0.6247041145964403  0.1243841212568242
  0.1174043559877163  0.8754985488045293  0.3763411197504709
  0.3764002540757758  0.6306498031699093  0.3749042829172282
  0.3731372180311823  0.8816450785137420  0.1187245527106384
  0.1330183546363770  0.6235380907182844  0.6264755703532785
  0.1199914532704653  0.8758322863350969  0.8784339398052765
  0.3737067129870724  0.6200459999068073  0.8756152380894591
  0.3713585922954721  0.8754751610327673  0.6286233952601847
  0.6213861093379833  0.1261268252464305  0.1216390209201137
  0.6292604347765050  0.3813308706866749  0.3711867049012838
  0.8746715545047579  0.1256024731870582  0.3820190664927097
  0.8743739339782763  0.3728532849343580  0.1243346229155051
  0.6233148334155700  0.1223537910352235  0.6230847400909809
  0.6309928563226777  0.3712004758363392  0.8791262763828342
  0.8769809873156547  0.1295440843808038  0.8800959409364921
  0.8719813857888070  0.3772622428852799  0.6190964240906567
  0.6235389772119007  0.6269955043581774  0.1245895232493766
  0.6288399248232750  0.8754651629136774  0.3745985336973234
  0.8736106033785305  0.6271910397090537  0.3761441790759790
  0.8769978852715852  0.8721329736033283  0.1251645293095649
  0.6187241797049623  0.6305077436820454  0.6283790535417424
  0.6252816872317055  0.8668469457421466  0.8837222049501676
  0.8790300337696948  0.6185146549088998  0.8834616230990164
  0.8777526454916043  0.8765151222571816  0.6240111498585890
  0.0041227280580287  0.0026373223851195  0.0019166466725622
  0.9951147736633104  0.2468724941610958  0.2496413234105432
  0.2480310039793991  0.0019489834701432  0.2487681379178213
  0.2506863173646821  0.2522266074860795  0.9980908850192591
  0.9975025732276848  0.0042018736791647  0.4993471152344355
  0.0054888941826334  0.2504958456827424  0.7514545157565706
  0.2472442947393247  0.9956367534054493  0.7490702487715168
  0.2478548170311896  0.2478360031456504  0.4956608462726635
  0.9981125909108144  0.4954500608575216  0.9947073850153529
  0.0013678102117396  0.7528101243728074  0.2585255296369837
  0.2482135309981004  0.4986868408369105  0.2573328509667689
  0.2462380454021016  0.7574438412834397  0.0021853335700044
  0.0012852040681608  0.4954555234084168  0.5039020384928108
  0.9949525802172374  0.7497240931164058  0.7536463247991136
  0.2432544163734320  0.5027755489577928  0.7514026151908766
  0.2490566397341851  0.7501979534951104  0.5018724056978883
  0.5004593601385920  0.0012492805834441  0.0031094245770902
  0.4981055716975433  0.2488780147097671  0.2480106119230854
  0.7509680837743815  0.0009712258361674  0.2488756475225458
  0.7479618379090027  0.2533580238880617  0.0039304388249022
  0.4953112185123274  0.0008674538929156  0.4993339549308828
  0.4970425167268147  0.2529498055135306  0.7454607827610431
  0.7447074274213392  0.0016392534444520  0.7524526700325822
  0.7527610231221189  0.2484405209894405  0.4960601623050920
  0.5025229575198011  0.5057071273425890  0.9985480631984274
  0.4943666891725584  0.7486869830812068  0.2481104529710976
  0.7520872427566232  0.5008930939585525  0.2515236398584833
  0.7537564726188180  0.7538888153714254  0.0008967467112555
  0.4961266551233692  0.4949302953356494  0.4954343914564845
  0.4984924867426344  0.7516212644523534  0.7546290888494696
  0.7465224091825107  0.4960766813598667  0.7508165412487813
  0.7441115631729360  0.7453985008776627  0.5026681621646247
 
  0.00000000E+00  0.00000000E+00  0.00000000E+00
  0.00000000E+00  0.00000000E+00  0.00000000E+00
  0.00000000E+00  0.00000000E+00  0.00000000E+00
  0.00000000E+00  0.00000000E+00  0.00000000E+00
  0.00000000E+00  0.00000000E+00  0.00000000E+00
  0.00000000E+00  0.00000000E+00  0.00000000E+00
  0.00000000E+00  0.00000000E+00  0.00000000E+00
  0.00000000E+00  0.00000000E+00  0.00000000E+00
  0.00000000E+00  0.00000000E+00  0.00000000E+00
  0.00000000E+00  0.00000000E+00  0.00000000E+00
  0.00000000E+00  0.00000000E+00  0.00000000E+00
  0.00000000E+00  0.00000000E+00  0.00000000E+00
  0.00000000E+00  0.00000000E+00  0.00000000E+00
  0.00000000E+00  0.00000000E+00  0.00000000E+00
  0.00000000E+00  0.00000000E+00  0.00000000E+00
  0.00000000E+00  0.00000000E+00  0.00000000E+00
  0.00000000E+00  0.00000000E+00  0.00000000E+00
  0.00000000E+00  0.00000000E+00  0.00000000E+00
  0.00000000E+00  0.00000000E+00  0.00000000E+00
  0.00000000E+00  0.00000000E+00  0.00000000E+00
  0.00000000E+00  0.00000000E+00  0.00000000E+00
  0.00000000E+00  0.00000000E+00  0.00000000E+00
  0.00000000E+00  0.00000000E+00  0.00000000E+00
  0.00000000E+00  0.00000000E+00  0.00000000E+00
  0.00000000E+00  0.00000000E+00  0.00000000E+00
  0.00000000E+00  0.00000000E+00  0.00000000E+00
  0.00000000E+00  0.00000000E+00  0.00000000E+00
  0.00000000E+00  0.00000000E+00  0.00000000E+00
  0.00000000E+00  0.00000000E+00  0.00000000E+00
  0.00000000E+00  0.00000000E+00  0.00000000E+00
  0.00000000E+00  0.00000000E+00  0.00000000E+00
  0.00000000E+00  0.00000000E+00  0.00000000E+00
  0.00000000E+00  0.00000000E+00  0.00000000E+00
  0.00000000E+00  0.00000000E+00  0.00000000E+00
  0.00000000E+00  0.00000000E+00  0.00000000E+00
  0.00000000E+00  0.00000000E+00  0.00000000E+00
  0.00000000E+00  0.00000000E+00  0.00000000E+00
  0.00000000E+00  0.00000000E+00  0.00000000E+00
  0.00000000E+00  0.00000000E+00  0.00000000E+00
  0.00000000E+00  0.00000000E+00  0.00000000E+00
  0.00000000E+00  0.00000000E+00  0.00000000E+00
  0.00000000E+00  0.00000000E+00  0.00000000E+00
  0.00000000E+00  0.00000000E+00  0.00000000E+00
  0.00000000E+00  0.00000000E+00  0.00000000E+00
  0.00000000E+00  0.00000000E+00  0.00000000E+00
  0.00000000E+00  0.00000000E+00  0.00000000E+00
  0.00000000E+00  0.00000000E+00  0.00000000E+00
  0.00000000E+00  0.00000000E+00  0.00000000E+00
  0.00000000E+00  0.00000000E+00  0.00000000E+00
  0.00000000E+00  0.00000000E+00  0.00000000E+00
  0.00000000E+00  0.00000000E+00  0.00000000E+00
  0.00000000E+00  0.00000000E+00  0.00000000E+00
  0.00000000E+00  0.00000000E+00  0.00000000E+00
  0.00000000E+00  0.00000000E+00  0.00000000E+00
  0.00000000E+00  0.00000000E+00  0.00000000E+00
  0.00000000E+00  0.00000000E+00  0.00000000E+00
  0.00000000E+00  0.00000000E+00  0.00000000E+00
  0.00000000E+00  0.00000000E+00  0.00000000E+00
  0.00000000E+00  0.00000000E+00  0.00000000E+00
  0.00000000E+00  0.00000000E+00  0.00000000E+00
  0.00000000E+00  0.00000000E+00  0.00000000E+00
  0.00000000E+00  0.00000000E+00  0.00000000E+00
  0.00000000E+00  0.00000000E+00  0.00000000E+00
  0.00000000E+00  0.00000000E+00  0.00000000E+00
