 C Si 
 1.0000000000000000
     8.7433155800000009    0.0000000000000000    0.0000000000000000
     0.0000000000000000    8.7433155800000009    0.0000000000000000
     0.0000000000000000    0.0000000000000000    8.7433155800000009
 C   Si 
  32  32
Cartesian
  1.1570063894119258  1.0525681362535770  1.1028640924891966
  1.0862216889341048  3.2772533740707450  3.2935983078098419
  3.3332372955188143  1.0515454919503211  3.2542637314159126
  3.1869557506996444  3.2456928670232612  1.1449211457902442
  1.1066339043809894  1.0736375409412118  5.4986846387641783
  1.1463159505344414  3.2713266243720849  7.6745906605009431
  3.3300918449887731  1.1716994123006090  7.5645768931151398
  3.3407184158700121  3.2353815785504576  5.3966693858803998
  1.0391970019394343  5.4619852180411463  1.0875296252893749
  1.0265033348672377  7.6547601020300124  3.2904691757089255
  3.2909862057766821  5.5139702495793932  3.2779064578389328
  3.2624564518898662  7.7085011509995471  1.0380462314434489
  1.1630214525182101  5.4517903033006201  5.4774736147592265
  1.0491231428465007  7.6576780745806934  7.6804251519002831
  3.2674357260104423  5.4212578513018634  7.6557803532729496
  3.2469053657838822  7.6545556153607865  5.4962527257308667
  5.4329748509703943  1.1027666362330562  1.0635283467467938
  5.5018225632589619  3.3340961428097984  3.2454025000522693
  7.6475294298842513  1.0981820607029600  3.3401132559227436
  7.6449272396981813  3.2599739352207262  1.0870968456705576
  5.4498382942474670  1.0697778074303168  5.4478265156977344
  5.5169696715547936  3.2455229036832485  7.6864784690854231
  7.6677215297607724  1.1326448112635252  7.6949565522847747
  7.6240084358372613  3.2985228459646132  5.4129554102741304
  5.4517980541940592  5.4820195618448393  1.0893255197310197
  5.4981459120333520  7.6544681986503713  3.2752331959209431
  7.6382531993727092  5.4837291891245616  3.2887472612413178
  7.6678692739220855  7.6253338159377000  1.0943529791756861
  5.4097007601371114  5.5127281786458617  5.4941163689771422
  5.4670351178616485  7.5791164061827363  7.7266621229327264
  7.6856369895465013  5.4078688187233199  7.7243837735736935
  7.6744683807129768  7.6636483245368145  5.4559264086523305
  0.0360463124618868  0.0230589418993113  0.0167578467135623
 -0.0427130755414330  2.1584841244721882  2.1826928723872183
  2.1686133414161417  0.0170405775396568  2.1750583360644637
  2.1918295843074711  2.2052968269235831 -0.0166919947551029
 -0.0218357904083133  0.0367383076042190  4.3659494124573062
  0.0479911340240007  2.1901642302832167  6.5702039752757742
  2.1617348942604275 -0.0381492419295307  6.5493575765984788
  2.1670728833268407  2.1669083875882849  4.3337191996117790
 -0.0165022132952990  4.3318762362075294 -0.0462750030541988
  0.0119591963347793  6.5820564892105322  2.2603702911027668
  2.1702092327424820  4.3601764250303603  2.2499423251035990
  2.1529369387529393  6.6225705384685432  0.0191070610501370
  0.0112369447526074  4.3319239970138774  4.4057745439479330
 -0.0441311840254335  6.5550743440460417  6.5893676534258381
  2.1268501285816179  4.3959252904457013  6.5697501922511137
  2.1775807984903452  6.5592174548778939  4.3880288239104299
  4.3756741206565923  0.0109228543890056  0.0271866803496820
  4.3550942055079158  2.1760190235313539  2.1684350472324589
  6.5659509469472903  0.0084917339850457  2.1759983264664573
  6.5396663906352268  2.2151891575785085  0.0343650670139760
  4.3306622937676007  0.0075844231368569  4.3658343477701882
  4.3457995804199578  2.2116199755043984  6.5177988761936509
  6.5112120527147379  0.0143325101804720  6.5789311531084556
  6.5816271814803748  2.1721938778703045  4.3372105456994436
  4.3937168037905554  4.4215570054115245 -0.0126947416583885
  4.3224039756754333  6.5460065637171079  2.1693079890230607
  6.5757361071132507  4.3794663923222430  2.1991505591129550
  6.5903307105739835  6.5914878250247009  0.0078405394918560
  4.3377919133934411  4.3273317622221645  4.3317392336893041
  4.3584771258497916  6.5716619117455730  6.5979602696587536
  6.5270810110245545  4.3373549770084496  6.5646259628221850
  6.5060022235481103  6.5172543260323135  4.3949863738239241
