 C Si                                   
   1.00000000000000     
     8.7433155800000009    0.0000000000000000    0.0000000000000000
     0.0000000000000000    8.7433155800000009    0.0000000000000000
     0.0000000000000000    0.0000000000000000    8.7433155800000009
   C    Si
    32    32
Direct
  0.1238790156416059  0.1355015550758623  0.1196734211297752
  0.1266637622434601  0.3669127304410864  0.3726407372867371
  0.3755251602008300  0.1173283798398401  0.3814900440722653
  0.3714784768956605  0.3703656706302070  0.1275916696600632
  0.1298886299845492  0.1291885548671914  0.6176722626403190
  0.1357353388209432  0.3724331725464793  0.8781116420272213
  0.3727728619001311  0.1189280599746567  0.8746785029486048
  0.3708370653964224  0.3677645631202040  0.6143933954791265
  0.1145002806495157  0.6246662595023622  0.1268090580157946
  0.1263878349972387  0.8773392287353872  0.3724393760673408
  0.3798103683972371  0.6195767234405878  0.3816953297123575
  0.3748042524977464  0.8821023787353468  0.1172763513166188
  0.1225351746362122  0.6282284158952862  0.6276195027368914
  0.1283233858902832  0.8769745842912826  0.8821824044287823
  0.3624993893018953  0.6275987852262688  0.8687971709309608
  0.3744377521099764  0.8765913097780356  0.6224540666651492
  0.6178897391553591  0.1261884853693545  0.1193077600002326
  0.6226425598725882  0.3788266016707595  0.3739045304297264
  0.8688628466272306  0.1289049864472531  0.3777842978756212
  0.8721799336330207  0.3746219737962733  0.1278913467877416
  0.6263456704556702  0.1268014520177729  0.6247612298992422
  0.6306286837324109  0.3854851118665437  0.8733098867974078
  0.8757774987363121  0.1216176488100089  0.8802378219889349
  0.8752821073908024  0.3709072175372370  0.6262409554847466
  0.6190662442362509  0.6190922311914306  0.1220681450671890
  0.6326926989641777  0.8685447704347808  0.3826747400523089
  0.8784899205085779  0.6232903077439929  0.3787611574790759
  0.8703129590831367  0.8869281363838297  0.1283725867459538
  0.6303595636388906  0.6281713325712204  0.6208521830319924
  0.6202958202384394  0.8744911423039881  0.8739732757455343
  0.8817613634385566  0.6259316890209519  0.8747196569394262
  0.8772970752441935  0.8711513641683410  0.6251278380224292
  0.0009193252892956  0.9984480937906426  0.0006505392098646
  0.9941650814313618  0.2503480808291201  0.2519813594421265
  0.2454228474600484  0.9949572122601467  0.2573794055019007
  0.2518182380872744  0.2496129701400349  0.0022955193197944
  0.0026774550697866  0.9983015100056392  0.5000763707333817
  0.9960005733995203  0.2469686592337226  0.7435578227506525
  0.2484357226714735  0.0011872807115125  0.7515512964141635
  0.2448973130843370  0.2521156996527694  0.5049277005379977
  0.0011769974614637  0.4986535518213486  0.0057953167852034
  0.9940527053170314  0.7516107336013107  0.2511490207141236
  0.2496754024204009  0.5043650708952256  0.2466164653074685
  0.2441209340013657  0.7466633335230881  0.0040311730950009
  0.0048835885262264  0.4989841683823499  0.4999580669189214
  0.9948448383009492  0.7512810487788357  0.7495349400925591
  0.2547703743320042  0.4914415391530724  0.7456167528382807
  0.2516929908265695  0.7508697374026667  0.4992659290430908
  0.4996200598247640  0.9979398293960955  0.0046086941059755
  0.5022915779093324  0.2522374259784286  0.2467525317003094
  0.7568060008830386  0.9966446166867726  0.2541331951861068
  0.7552230289613391  0.2433312220854589  0.0013920766350068
  0.4997511915518942  0.9884343034438032  0.4933574523538695
  0.4969803766539087  0.2411980253018555  0.7434873635461656
  0.7496870222544487  0.9912117669999603  0.7461128892141460
  0.7488699564933938  0.2532479877247340  0.4993463994083598
  0.5083721078386318  0.5070081560842254  0.0005635297057722
  0.5039260369322136  0.7518258237942277  0.2458218497208975
  0.7407944232579666  0.4979517026088800  0.2532050127178067
  0.7511442266667814  0.7456245257236773  0.9959644264721916
  0.4995996819501727  0.4967385409555547  0.5030032173013765
  0.5023263898767567  0.7486104567992058  0.7517261423721564
  0.7445423087183940  0.4981803803280656  0.7529782864708423
  0.7513039131693731  0.7514913268888179  0.5035266929673057
 
  0.00000000E+00  0.00000000E+00  0.00000000E+00
  0.00000000E+00  0.00000000E+00  0.00000000E+00
  0.00000000E+00  0.00000000E+00  0.00000000E+00
  0.00000000E+00  0.00000000E+00  0.00000000E+00
  0.00000000E+00  0.00000000E+00  0.00000000E+00
  0.00000000E+00  0.00000000E+00  0.00000000E+00
  0.00000000E+00  0.00000000E+00  0.00000000E+00
  0.00000000E+00  0.00000000E+00  0.00000000E+00
  0.00000000E+00  0.00000000E+00  0.00000000E+00
  0.00000000E+00  0.00000000E+00  0.00000000E+00
  0.00000000E+00  0.00000000E+00  0.00000000E+00
  0.00000000E+00  0.00000000E+00  0.00000000E+00
  0.00000000E+00  0.00000000E+00  0.00000000E+00
  0.00000000E+00  0.00000000E+00  0.00000000E+00
  0.00000000E+00  0.00000000E+00  0.00000000E+00
  0.00000000E+00  0.00000000E+00  0.00000000E+00
  0.00000000E+00  0.00000000E+00  0.00000000E+00
  0.00000000E+00  0.00000000E+00  0.00000000E+00
  0.00000000E+00  0.00000000E+00  0.00000000E+00
  0.00000000E+00  0.00000000E+00  0.00000000E+00
  0.00000000E+00  0.00000000E+00  0.00000000E+00
  0.00000000E+00  0.00000000E+00  0.00000000E+00
  0.00000000E+00  0.00000000E+00  0.00000000E+00
  0.00000000E+00  0.00000000E+00  0.00000000E+00
  0.00000000E+00  0.00000000E+00  0.00000000E+00
  0.00000000E+00  0.00000000E+00  0.00000000E+00
  0.00000000E+00  0.00000000E+00  0.00000000E+00
  0.00000000E+00  0.00000000E+00  0.00000000E+00
  0.00000000E+00  0.00000000E+00  0.00000000E+00
  0.00000000E+00  0.00000000E+00  0.00000000E+00
  0.00000000E+00  0.00000000E+00  0.00000000E+00
  0.00000000E+00  0.00000000E+00  0.00000000E+00
  0.00000000E+00  0.00000000E+00  0.00000000E+00
  0.00000000E+00  0.00000000E+00  0.00000000E+00
  0.00000000E+00  0.00000000E+00  0.00000000E+00
  0.00000000E+00  0.00000000E+00  0.00000000E+00
  0.00000000E+00  0.00000000E+00  0.00000000E+00
  0.00000000E+00  0.00000000E+00  0.00000000E+00
  0.00000000E+00  0.00000000E+00  0.00000000E+00
  0.00000000E+00  0.00000000E+00  0.00000000E+00
  0.00000000E+00  0.00000000E+00  0.00000000E+00
  0.00000000E+00  0.00000000E+00  0.00000000E+00
  0.00000000E+00  0.00000000E+00  0.00000000E+00
  0.00000000E+00  0.00000000E+00  0.00000000E+00
  0.00000000E+00  0.00000000E+00  0.00000000E+00
  0.00000000E+00  0.00000000E+00  0.00000000E+00
  0.00000000E+00  0.00000000E+00  0.00000000E+00
  0.00000000E+00  0.00000000E+00  0.00000000E+00
  0.00000000E+00  0.00000000E+00  0.00000000E+00
  0.00000000E+00  0.00000000E+00  0.00000000E+00
  0.00000000E+00  0.00000000E+00  0.00000000E+00
  0.00000000E+00  0.00000000E+00  0.00000000E+00
  0.00000000E+00  0.00000000E+00  0.00000000E+00
  0.00000000E+00  0.00000000E+00  0.00000000E+00
  0.00000000E+00  0.00000000E+00  0.00000000E+00
  0.00000000E+00  0.00000000E+00  0.00000000E+00
  0.00000000E+00  0.00000000E+00  0.00000000E+00
  0.00000000E+00  0.00000000E+00  0.00000000E+00
  0.00000000E+00  0.00000000E+00  0.00000000E+00
  0.00000000E+00  0.00000000E+00  0.00000000E+00
  0.00000000E+00  0.00000000E+00  0.00000000E+00
  0.00000000E+00  0.00000000E+00  0.00000000E+00
  0.00000000E+00  0.00000000E+00  0.00000000E+00
  0.00000000E+00  0.00000000E+00  0.00000000E+00
