 C Si 
 1.0000000000000000
     8.7433155800000009    0.0000000000000000    0.0000000000000000
     0.0000000000000000    8.7433155800000009    0.0000000000000000
     0.0000000000000000    0.0000000000000000    8.7433155800000009
 C   Si 
  32  32
Cartesian
  1.0831133274943370  1.1847328576090075  1.0463424874758842
  1.1074612458446547  3.2080337925658666  3.2581155640618253
  3.2833349838659438  1.0258390514298050  3.3354878459519202
  3.2479535546765224  3.2382239383182498  1.1155742332170635
  1.1356572822087589  1.1295363045280031  5.4005035172769356
  1.1867769026697068  3.2563007600344500  7.6776072007160039
  3.2592707712526212  1.0398255596755837  7.6475901823215935
  3.2423454915220198  3.2154816345007475  5.3718353469417739
  1.0011120877173072  5.4616542390073013  1.1087316126346070
  1.1050487268538112  7.6708537475473157  3.2563549993750489
  3.3208019114530813  5.4171548190634198  3.3372827230873070
  3.2770318603137780  7.7124994711517925  1.0253841496321325
  1.0713637014948305  5.4927992964959476  5.4874753765913100
  1.1219718591328647  7.6676655460979868  7.7131991610440123
  3.1694465582237217  5.4872942368579389  7.5961678404606223
  3.2738274317633156  7.6643144560749157  5.4423123389077848
  5.4024049830791965  1.1033057501464831  1.0431453968249138
  5.4439603945050568  3.3122005285064140  3.2691653063388388
  7.5967420637989989  1.1270569763439819  3.3030873374952932
  7.6257444022969345  3.2754381401033252  1.1181944049164281
  5.4763378589606324  1.1086651109935981  5.4624845951579779
  5.5137855956724753  3.3704179844407860  7.6356239394037857
  7.6571990493146007  1.0633414836435136  7.6961970631011232
  7.6528676864452150  3.2429588538277909  5.4754223029238744
  5.4126915382829015  5.4129187504329890  1.0672803145876240
  5.5318319322057476  7.5939610232699328  3.3458460167718140
  7.6809146088556091  5.4496238585610248  3.3116283292856625
  7.6094208546275075  7.7546925931851174  1.1224020377407793
  5.5114325937658899  5.4923001989792919  5.4283065647806321
  5.4234421092996294  7.6459520290784422  7.6414241583295954
  7.7095178667943483  5.4727182886326142  7.6479500046507365
  7.6704851862709784  7.6167512948713103  5.4656899656732270
  0.0080379511249941 -0.0135688057389968  0.0056878696089943
 -0.0510165344291978  2.1888722755363510  2.2031525458799046
  2.1458094058854189 -0.0440906846125178  2.2503493660958847
  2.2017263243966143  2.1824449707954199  0.0200704498329680
  0.0234098346263870 -0.0148504340301574  4.3723255234230560
 -0.0349682489070102  2.1593249260498908  6.5011606962866884
  2.1721519246620393  0.0103807699427809  6.5710501591071466
  2.1412144929904167  2.2043271247366500  4.4147422308874544
  0.0102908602424607  4.3598853686619048  0.0506702835391180
 -0.0519990742604595  6.5715698371915767  2.1958751457115180
  2.1829908359250498  4.4098229823660455  2.1562455834072916
  2.1344263656583116  6.5283131570071822  0.0352458185272202
  0.0426987556476845  4.3627760535907232  4.3712911558388781
 -0.0450732056007607  6.5686872987467373  6.5534205194656154
  2.2275377832194452  4.2968284659362119  6.5191625717999262
  2.2006312480707289  6.5650910735832273  4.3652395759656519
  4.3683358531464007 -0.0180127217385912  0.0402952669802393
  4.3916937788374399  2.2053914164162718  2.1574352548197298
  6.6169936985581499 -0.0293371751994131  2.2219667248658643
  6.6031532754924713  2.1275216651602418  0.0121713653314217
  4.3694823792192228 -0.1011225348933229  4.3135798996746963
  4.3452562701523680  2.1088704524869737  6.5005446492263097
  6.5547502218011049 -0.0768382945099429  6.5235004487048256
  6.5476063580026294  2.2142270766773047  4.3659431537640234
  4.4448577709029777  4.4329323102782778  0.0049271180562727
  4.4059843698770997  6.5734504386263897  2.1492980085691218
  6.4769994224485039  4.3537488795077568  2.2138513326296811
  6.5674910198427012  6.5192305325899200 -0.0352842928999436
  4.3681576829579933  4.3431418243231512  4.3979158666212799
  4.3919981508546080  6.5453374702834077  6.5725788924957564
  6.5097683677867275  4.3557482809727315  6.5835267835022080
  6.5688872093287660  6.5705258266218554  4.4024927795669138
