 C Si                                   
   1.00000000000000     
     8.7433155800000009    0.0000000000000000    0.0000000000000000
     0.0000000000000000    8.7433155800000009    0.0000000000000000
     0.0000000000000000    0.0000000000000000    8.7433155800000009
   C    Si
    32    32
Direct
  0.1270496021608025  0.1251773473502951  0.1225025836280764
  0.1244066097182994  0.3765082568635876  0.3769565787951450
  0.3746830231330094  0.1248116584481451  0.3765233051350165
  0.3798740912648171  0.3734771356596482  0.1269793741293057
  0.1235241079364329  0.1245024687670622  0.6246220417942681
  0.1263430305554110  0.3739785994819371  0.8748635383892633
  0.3731586596238472  0.1254303143194520  0.8757528187472445
  0.3722530368673773  0.3753277203520469  0.6242431974802614
  0.1265249961701116  0.6253203508618483  0.1270429334599257
  0.1262751178254717  0.8737305781298872  0.3757314724530190
  0.3751878162162114  0.6246988673666252  0.3761521410628959
  0.3744414286579101  0.8769247109457226  0.1245552364756222
  0.1262016262162646  0.6234724801250096  0.6267033114436487
  0.1241115109733570  0.8740196173279031  0.8752219234308853
  0.3720827159223958  0.6260383934988383  0.8776015385168705
  0.3769527483690354  0.8775367760921569  0.6250879858942184
  0.6260085399911546  0.1265501022108637  0.1267354721122302
  0.6250267169570165  0.3781529933303247  0.3746537136249444
  0.8740169297621705  0.1253239395255079  0.3775293387901897
  0.8739089395529405  0.3746139871872316  0.1236636249835286
  0.6285182973710093  0.1247133820218949  0.6236342965282944
  0.6265418115925740  0.3757736031751975  0.8746576564015314
  0.8755994068488135  0.1248528073238404  0.8762118172348679
  0.8765876500806513  0.3764920470508457  0.6240438805652744
  0.6240270201908658  0.6234531986149534  0.1251605475261925
  0.6234476490837224  0.8748811044293845  0.3731833033555958
  0.8742977201562567  0.6255508352765915  0.3744650537093150
  0.8731950957338199  0.8741656863501390  0.1234571060980585
  0.6241493922175323  0.6240211140641705  0.6231062656282305
  0.6246592368368269  0.8749543771167794  0.8730394744444041
  0.8723534353007452  0.6238303107722274  0.8775991359761548
  0.8773985638228936  0.8761657983704936  0.6265115000181183
  0.9994211874794843  0.0010772822684331  0.0012390508948457
  0.9995394953266086  0.2503785129058684  0.2509153276004454
  0.2497763394529144  0.9986407290325872  0.2492235645369618
  0.2506409037514032  0.2508531827886031  0.0011248246490894
  0.0007329574056598  0.0018092856083030  0.4995524513267071
  0.0007958395413397  0.2498719595896688  0.7506489910425103
  0.2481366301299772  0.9994124336429309  0.7480196134491592
  0.2520030530273729  0.2482764778091422  0.5016703654589918
  0.0004398968515389  0.4990181854687776  0.9984407352495381
  0.0016743115160551  0.7491906261427133  0.2487735171728360
  0.2487327672942570  0.5004270046962063  0.2482866405476969
  0.2487259008609897  0.7493051475078545  0.0011721699102836
  0.9995415446575180  0.4976849448994116  0.4988476319672941
  0.0018042296622838  0.7507909432590836  0.7505926129771652
  0.2502476297718275  0.5000925178131723  0.7507171758203057
  0.2493313488976554  0.7492856507338743  0.5027660475135320
  0.4985901318382915  0.9991010805739364  0.0006233432820153
  0.5021829185935971  0.2503012171584231  0.2479865630494871
  0.7515772542568584  0.0007999882741458  0.2500435871772524
  0.7494808033070157  0.2478858326600744  0.9992851849992377
  0.5004925950614876  0.0004001327645256  0.5022290601322723
  0.4991178539581611  0.2464873976223316  0.7489798987438050
  0.7511072853336742  0.9983861189290621  0.7513820900619521
  0.7509796356811904  0.2498675269362352  0.4995026124173947
  0.4981700781995286  0.5022316031713245  0.0007998315328663
  0.4999874627211582  0.7492228722169116  0.2499363231811316
  0.7501640568551196  0.4998931949116496  0.2479069118491850
  0.7508989219349402  0.7489879786898541  0.0014564457112840
  0.4990909676925597  0.5009103526876046  0.4992159122084843
  0.4977435568360491  0.7514369917376413  0.7509241795633272
  0.7502163748657935  0.4993634020690436  0.7469903258073671
  0.7477331090843080  0.7507647330725149  0.4998451957205745
 
  0.00000000E+00  0.00000000E+00  0.00000000E+00
  0.00000000E+00  0.00000000E+00  0.00000000E+00
  0.00000000E+00  0.00000000E+00  0.00000000E+00
  0.00000000E+00  0.00000000E+00  0.00000000E+00
  0.00000000E+00  0.00000000E+00  0.00000000E+00
  0.00000000E+00  0.00000000E+00  0.00000000E+00
  0.00000000E+00  0.00000000E+00  0.00000000E+00
  0.00000000E+00  0.00000000E+00  0.00000000E+00
  0.00000000E+00  0.00000000E+00  0.00000000E+00
  0.00000000E+00  0.00000000E+00  0.00000000E+00
  0.00000000E+00  0.00000000E+00  0.00000000E+00
  0.00000000E+00  0.00000000E+00  0.00000000E+00
  0.00000000E+00  0.00000000E+00  0.00000000E+00
  0.00000000E+00  0.00000000E+00  0.00000000E+00
  0.00000000E+00  0.00000000E+00  0.00000000E+00
  0.00000000E+00  0.00000000E+00  0.00000000E+00
  0.00000000E+00  0.00000000E+00  0.00000000E+00
  0.00000000E+00  0.00000000E+00  0.00000000E+00
  0.00000000E+00  0.00000000E+00  0.00000000E+00
  0.00000000E+00  0.00000000E+00  0.00000000E+00
  0.00000000E+00  0.00000000E+00  0.00000000E+00
  0.00000000E+00  0.00000000E+00  0.00000000E+00
  0.00000000E+00  0.00000000E+00  0.00000000E+00
  0.00000000E+00  0.00000000E+00  0.00000000E+00
  0.00000000E+00  0.00000000E+00  0.00000000E+00
  0.00000000E+00  0.00000000E+00  0.00000000E+00
  0.00000000E+00  0.00000000E+00  0.00000000E+00
  0.00000000E+00  0.00000000E+00  0.00000000E+00
  0.00000000E+00  0.00000000E+00  0.00000000E+00
  0.00000000E+00  0.00000000E+00  0.00000000E+00
  0.00000000E+00  0.00000000E+00  0.00000000E+00
  0.00000000E+00  0.00000000E+00  0.00000000E+00
  0.00000000E+00  0.00000000E+00  0.00000000E+00
  0.00000000E+00  0.00000000E+00  0.00000000E+00
  0.00000000E+00  0.00000000E+00  0.00000000E+00
  0.00000000E+00  0.00000000E+00  0.00000000E+00
  0.00000000E+00  0.00000000E+00  0.00000000E+00
  0.00000000E+00  0.00000000E+00  0.00000000E+00
  0.00000000E+00  0.00000000E+00  0.00000000E+00
  0.00000000E+00  0.00000000E+00  0.00000000E+00
  0.00000000E+00  0.00000000E+00  0.00000000E+00
  0.00000000E+00  0.00000000E+00  0.00000000E+00
  0.00000000E+00  0.00000000E+00  0.00000000E+00
  0.00000000E+00  0.00000000E+00  0.00000000E+00
  0.00000000E+00  0.00000000E+00  0.00000000E+00
  0.00000000E+00  0.00000000E+00  0.00000000E+00
  0.00000000E+00  0.00000000E+00  0.00000000E+00
  0.00000000E+00  0.00000000E+00  0.00000000E+00
  0.00000000E+00  0.00000000E+00  0.00000000E+00
  0.00000000E+00  0.00000000E+00  0.00000000E+00
  0.00000000E+00  0.00000000E+00  0.00000000E+00
  0.00000000E+00  0.00000000E+00  0.00000000E+00
  0.00000000E+00  0.00000000E+00  0.00000000E+00
  0.00000000E+00  0.00000000E+00  0.00000000E+00
  0.00000000E+00  0.00000000E+00  0.00000000E+00
  0.00000000E+00  0.00000000E+00  0.00000000E+00
  0.00000000E+00  0.00000000E+00  0.00000000E+00
  0.00000000E+00  0.00000000E+00  0.00000000E+00
  0.00000000E+00  0.00000000E+00  0.00000000E+00
  0.00000000E+00  0.00000000E+00  0.00000000E+00
  0.00000000E+00  0.00000000E+00  0.00000000E+00
  0.00000000E+00  0.00000000E+00  0.00000000E+00
  0.00000000E+00  0.00000000E+00  0.00000000E+00
  0.00000000E+00  0.00000000E+00  0.00000000E+00
