 C Si 
 1.0000000000000000
     8.7433155800000009    0.0000000000000000    0.0000000000000000
     0.0000000000000000    8.7433155800000009    0.0000000000000000
     0.0000000000000000    0.0000000000000000    8.7433155800000009
 C   Si 
  32  32
Cartesian
  1.1108347660053706  1.0944650513508967  1.0710787480256319
  1.0877262490050035  3.2919305082340227  3.2958503283630791
  3.2759719137203240  1.0912677178753287  3.2920620800200604
  3.3213590605939891  3.2654284589867575  1.1102207401633826
  1.0800102574261885  1.0885643749194964  5.4612676296312204
  1.1046569874795464  3.2698129154369941  7.6492080055727607
  3.2626439225011019  1.0966768213935358  7.6569832643817044
  3.2547257769448383  3.2816087049599210  5.4579552742382083
  1.1062479702735963  5.4673731661814502  1.1107764594490488
  1.1040632050497818  7.6393021764854545  3.2851388369947965
  3.2803854789493676  5.4619393398549585  3.2888168754055567
  3.2738595769821663  7.6672294876987621  1.0890257396479195
  1.1034206447180048  5.4512166491782175  5.4794648269828619
  1.0851461075507014  7.6418293374087023  7.6523414790908557
  3.2532366071729970  5.4736512395565633  7.6731472047465417
  3.2958168377388133  7.6725809664295399  5.4653415259397695
  5.4733902209176932  1.1064674803108512  1.1080882278574928
  5.4648058322865394  3.3063109582086598  3.2757156514418457
  7.6418058391733350  1.0957467530003628  3.3008581497513814
  7.6408616466944927  3.2753683106600668  1.0812300989977737
  5.4953338217190364  1.0904084560665239  5.4526314610581865
  5.4780527828187475  3.2855071991944613  7.6474079143817830
  7.6556419357400189  1.0916274954812475  7.6609964330097569
  7.6642824581857401  3.2917887807257697  5.4562125835500170
  5.4560651679757903  5.4510480648509407  1.0943181651870706
  5.4509995435481082  7.6493615910050208  3.2628593904248624
  7.6442608782006882  5.4693883641558374  3.2740661382621665
  7.6346202849090785  7.6431064649665537  1.0794244392088703
  5.4571351052231050  5.4560135288462330  5.4480147202629468
  5.4615928376263199  7.6500022372343501  7.6332596388647413
  7.6272613821315396  5.4543452754510717  7.6731261985748738
  7.6713725329423257  7.6605940755558715  5.4777877591575752
 -0.0050607405285149  0.0094190188416370  0.0108334129932892
 -0.0040263376854996  2.1891383527870971  2.1938318930697585
  2.1838733602540068 -0.0118845350268378  2.1790402747191271
  2.1914325187549153  2.1932885413681706  0.0098346968791243
  0.0064084779043807  0.0158191550477744  4.3677447307119843
  0.0069582762609643  2.1847093972854532  6.5631610184932301
  2.1695368641841379 -0.0051372780840718  6.5401715404155816
  2.2033422197417813  2.1707595965762092  4.3862623223418877
  0.0038461569956388  4.3630734757124747 -0.0136331437860440
  0.0146390339640689  6.5504100739435440  2.1751053685886554
  2.1747490795403706  4.3753912268131012  2.1708484526065135
  2.1746890441474527  6.5514113703796122  0.0102486514390011
 -0.0040084197386535  4.3514165326704770  4.3615822726257436
  0.0157749493161174  6.5644021515200146  6.5626680872761609
  2.1879940002420848  4.3724667024373245  6.5637571795233081
  2.1799826673992833  6.5512409039319195  4.3958422163201014
  4.3593308677359603 -0.0078595362230520  0.0054500870293615
  4.3907437361492834  2.1884625316742232  2.1682247803412191
  6.5712771167176056  0.0069945499411760  2.1862099914459594
  6.5529471844651406  2.1673440627581169 -0.0062498531329722
  4.3759647040757290  0.0034984870341704  4.3911471661832637
  4.3639449087685254  2.1551171039049835  6.5485676177935517
  6.5671680301094399 -0.0141106715118131  6.5695707345716299
  6.5660519489140503  2.1846706411976577  4.3673089733996937
  4.3556582062117801  4.3911694007762021  0.0069931795026964
  4.3715481726145455  6.5506920115464471  2.1852721484775204
  6.5589210858573610  4.3707239594070231  2.1675283647606456
  6.5653462431589587  6.5486382633116857  0.0127341644788818
  4.3637098336636599  4.3796172908368174  4.3648022629963537
  4.3519289953292217  6.5700507572480511  6.5655670785747766
  6.5593785187352012  4.3660918133920692  6.5311721537408314
  6.5376665423386431  6.5641729875874528  4.3703042873318356
