 C Si                                   
   1.00000000000000     
     8.7433155800000009    0.0000000000000000    0.0000000000000000
     0.0000000000000000    8.7433155800000009    0.0000000000000000
     0.0000000000000000    0.0000000000000000    8.7433155800000009
   C    Si
    32    32
Direct
  0.1291213568847098  0.1294679396062222  0.1195467500919491
  0.1226121872083752  0.3739657825487441  0.3762210471281122
  0.3767631939503246  0.1272176126028839  0.3761696746211101
  0.3745361874021711  0.3764637649068732  0.1234645148044180
  0.1205679315830182  0.1240614429977356  0.6277840953485949
  0.1312927138080511  0.3733307288427028  0.8721097181424895
  0.3757476546446057  0.1256255349065398  0.8745934194071197
  0.3767924218404843  0.3717044569949977  0.6249334309356627
  0.1254272955301658  0.6244516546492775  0.1264411168369222
  0.1241394379357885  0.8732327100278212  0.3745052880885567
  0.3758519040927197  0.6232535952534164  0.3739299573638988
  0.3742569268741391  0.8764428180514301  0.1257402000896590
  0.1295883468036010  0.6286340152165550  0.6237581817235593
  0.1294402943170994  0.8764238791400558  0.8776965336053451
  0.3767557642204409  0.6230467318314510  0.8764458519497893
  0.3731533019902358  0.8726880795846554  0.6293899133825533
  0.6302178765236235  0.1278155235269196  0.1249214811571306
  0.6225422571311867  0.3761747173749868  0.3739289456369761
  0.8749393433544839  0.1270404489648485  0.3777136600581983
  0.8760040367046997  0.3735319646915158  0.1255141574360010
  0.6245636912365597  0.1267102774000790  0.6244007721096239
  0.6238797859661318  0.3722602181664598  0.8739045488543695
  0.8778653631522957  0.1219224135000943  0.8735527530330813
  0.8715332828944184  0.3691014847648830  0.6250867681206742
  0.6268562445215125  0.6258713822794846  0.1245313175106446
  0.6225242379838392  0.8720800548390528  0.3765374470558172
  0.8798038653475331  0.6234534585342786  0.3762759462516172
  0.8728699036370244  0.8720434785937101  0.1236584316173577
  0.6249966765436668  0.6274609182819049  0.6293485381824340
  0.6216600673560464  0.8770485472325760  0.8775572757331744
  0.8732225621722236  0.6229954752187794  0.8750496972405486
  0.8742804179614012  0.8781676215308849  0.6222794969888170
  0.9979404762903883  0.0031748661207160  0.0013413052060045
  0.9998974690553197  0.2469485995481620  0.2479816892170419
  0.2487090088554353  0.0002830239977243  0.2520675348885391
  0.2492263862063666  0.2456099962222282  0.9962613319876752
  0.0014725427852937  0.9976254646958651  0.5015641408032394
  0.0005315826568193  0.2480411678814534  0.7462985872538184
  0.2479207102219831  0.9997611846745826  0.7530533412206637
  0.2481699972094731  0.2514596448679285  0.4977870704027723
  0.9988441435490785  0.5023200206861631  0.9998730590902625
  0.9972287652726735  0.7457848456264315  0.2501492112938095
  0.2484135686295232  0.5004180363601023  0.2498624713302462
  0.2513053049531990  0.7495042115914359  0.9991918863129357
  0.9999018407572819  0.4974025799866979  0.5004688474575403
  0.9924471129500674  0.7494495109698249  0.7477262134252030
  0.2524533017417170  0.5012024421936090  0.7518414794410404
  0.2508108146978429  0.7515946449144622  0.5000207435333408
  0.4992802458082934  0.9985524352836848  0.9973432968342664
  0.5004752628518787  0.2518067737389700  0.2524270148735681
  0.7470463928705797  0.0027619922992272  0.2477765762051973
  0.7507164092300371  0.2510386116029650  0.0020137584613664
  0.4983088929636494  0.9995886852719167  0.5000158829989729
  0.4981106734906078  0.2507299593417116  0.7508513151998955
  0.7452235388894621  0.9984634857587054  0.7513762332887381
  0.7488206570460747  0.2539041819432626  0.5015562126419013
  0.5017209536024723  0.4997904655452956  0.9997840329939720
  0.5024309382167118  0.7501099775519435  0.2486518422866268
  0.7469875625377043  0.5027253161638328  0.2506013197314800
  0.7530298384334131  0.7482908334315255  0.0009400823097678
  0.4994440044654169  0.5008939875074319  0.5002777590307446
  0.4943050150001511  0.7479823223818016  0.7509453193730451
  0.7452071499169506  0.4987456409663906  0.7552325652801954
  0.7529297664589620  0.7525489020224327  0.4973093541985207
 
  0.00000000E+00  0.00000000E+00  0.00000000E+00
  0.00000000E+00  0.00000000E+00  0.00000000E+00
  0.00000000E+00  0.00000000E+00  0.00000000E+00
  0.00000000E+00  0.00000000E+00  0.00000000E+00
  0.00000000E+00  0.00000000E+00  0.00000000E+00
  0.00000000E+00  0.00000000E+00  0.00000000E+00
  0.00000000E+00  0.00000000E+00  0.00000000E+00
  0.00000000E+00  0.00000000E+00  0.00000000E+00
  0.00000000E+00  0.00000000E+00  0.00000000E+00
  0.00000000E+00  0.00000000E+00  0.00000000E+00
  0.00000000E+00  0.00000000E+00  0.00000000E+00
  0.00000000E+00  0.00000000E+00  0.00000000E+00
  0.00000000E+00  0.00000000E+00  0.00000000E+00
  0.00000000E+00  0.00000000E+00  0.00000000E+00
  0.00000000E+00  0.00000000E+00  0.00000000E+00
  0.00000000E+00  0.00000000E+00  0.00000000E+00
  0.00000000E+00  0.00000000E+00  0.00000000E+00
  0.00000000E+00  0.00000000E+00  0.00000000E+00
  0.00000000E+00  0.00000000E+00  0.00000000E+00
  0.00000000E+00  0.00000000E+00  0.00000000E+00
  0.00000000E+00  0.00000000E+00  0.00000000E+00
  0.00000000E+00  0.00000000E+00  0.00000000E+00
  0.00000000E+00  0.00000000E+00  0.00000000E+00
  0.00000000E+00  0.00000000E+00  0.00000000E+00
  0.00000000E+00  0.00000000E+00  0.00000000E+00
  0.00000000E+00  0.00000000E+00  0.00000000E+00
  0.00000000E+00  0.00000000E+00  0.00000000E+00
  0.00000000E+00  0.00000000E+00  0.00000000E+00
  0.00000000E+00  0.00000000E+00  0.00000000E+00
  0.00000000E+00  0.00000000E+00  0.00000000E+00
  0.00000000E+00  0.00000000E+00  0.00000000E+00
  0.00000000E+00  0.00000000E+00  0.00000000E+00
  0.00000000E+00  0.00000000E+00  0.00000000E+00
  0.00000000E+00  0.00000000E+00  0.00000000E+00
  0.00000000E+00  0.00000000E+00  0.00000000E+00
  0.00000000E+00  0.00000000E+00  0.00000000E+00
  0.00000000E+00  0.00000000E+00  0.00000000E+00
  0.00000000E+00  0.00000000E+00  0.00000000E+00
  0.00000000E+00  0.00000000E+00  0.00000000E+00
  0.00000000E+00  0.00000000E+00  0.00000000E+00
  0.00000000E+00  0.00000000E+00  0.00000000E+00
  0.00000000E+00  0.00000000E+00  0.00000000E+00
  0.00000000E+00  0.00000000E+00  0.00000000E+00
  0.00000000E+00  0.00000000E+00  0.00000000E+00
  0.00000000E+00  0.00000000E+00  0.00000000E+00
  0.00000000E+00  0.00000000E+00  0.00000000E+00
  0.00000000E+00  0.00000000E+00  0.00000000E+00
  0.00000000E+00  0.00000000E+00  0.00000000E+00
  0.00000000E+00  0.00000000E+00  0.00000000E+00
  0.00000000E+00  0.00000000E+00  0.00000000E+00
  0.00000000E+00  0.00000000E+00  0.00000000E+00
  0.00000000E+00  0.00000000E+00  0.00000000E+00
  0.00000000E+00  0.00000000E+00  0.00000000E+00
  0.00000000E+00  0.00000000E+00  0.00000000E+00
  0.00000000E+00  0.00000000E+00  0.00000000E+00
  0.00000000E+00  0.00000000E+00  0.00000000E+00
  0.00000000E+00  0.00000000E+00  0.00000000E+00
  0.00000000E+00  0.00000000E+00  0.00000000E+00
  0.00000000E+00  0.00000000E+00  0.00000000E+00
  0.00000000E+00  0.00000000E+00  0.00000000E+00
  0.00000000E+00  0.00000000E+00  0.00000000E+00
  0.00000000E+00  0.00000000E+00  0.00000000E+00
  0.00000000E+00  0.00000000E+00  0.00000000E+00
  0.00000000E+00  0.00000000E+00  0.00000000E+00
