 C Si 
 1.0000000000000000
     8.7433155800000009    0.0000000000000000    0.0000000000000000
     0.0000000000000000    8.7433155800000009    0.0000000000000000
     0.0000000000000000    0.0000000000000000    8.7433155800000009
 C   Si 
  32  32
Cartesian
  1.1289487713607975  1.1319790534695815  1.0452349626173174
  1.0720370467168550  3.2697008529453480  3.2894193428791123
  3.2941595036364135  1.1123037343212174  3.2889701768382933
  3.2746880825872218  3.2915415010157383  1.0794892158666365
  1.0541634746581696  1.0847083474393753  5.4889144617375800
  1.1479336301783853  3.2641483779831466  7.6251304861046325
  3.2852803230026439  1.0983836965941687  7.6468462700677193
  3.2944150523038362  3.2499293699998151  5.4639902031626431
  1.0966504271661863  5.4597778810518349  1.1055145867928320
  1.0853902817964152  7.6349491585519029  3.2744179201370911
  3.2861918088265591  5.4493028696702348  3.2693876220484839
  3.2722464196615997  7.6630161460481432  1.0993862504762344
  1.1330318115943805  5.4963455793608791  5.4537146284160736
  1.1317373419825076  7.6628505571693166  7.6739777767836097
  3.2940945431633839  5.4474941974900224  7.6630426723789808
  3.2625970790196965  7.6301872827128081  5.5029546355725287
  5.5101937786035231  1.1175314582187450  1.0922279324778246
  5.4430834159834420  3.2890142672267952  3.2693787762007229
  7.6498707923062454  1.1107547367245572  3.3024697287656934
  7.6591797422630696  3.2659078465153177  1.0974098882207604
  5.4607574522909257  1.1078679425382503  5.4593329989500736
  5.4547778526847663  3.2547885653089796  7.6408232574312889
  7.6754539067918337  1.0660061375065697  7.6377473955460511
  7.6200905308193176  3.2271707623459198  5.4653308785613222
  5.4808019691452561  5.4721910077603733  1.0888166085887612
  5.4429258688917059  7.6248711304815755  3.2921857272965585
  7.6924028432373079  5.4510503374076551  3.2898993432410339
  7.6317770277826735  7.6245513328257788  1.0811846917584227
  5.4645431794724644  5.4860888226552582  5.5025928791407184
  5.4353701523779518  7.6683122274349653  7.6727602012602363
  7.6348604326479323  5.4470460447498423  7.6508356511575757
  7.6441095996508350  7.6780966471825565  5.4407860211368737
 -0.0180070657376153  0.0277588564176728  0.0117274547052047
 -0.0008964604060787  2.1591495378886143  2.1681821668861061
  2.1745413520121142  0.0024745681288448  2.2039060050031507
  2.1790649454652047  2.1474457065735764 -0.0326883542806090
  0.0128749062768485 -0.0207613115199333  4.3853335666542979
  0.0046477949254447  2.1687022076193223  6.5251240652682707
  2.1676490082885267 -0.0020880377554577  6.5841830108657007
  2.1698286030901648  2.1985910307150451  4.3523094481750979
 -0.0101060177155893  4.3919424630112269 -0.0011098844338446
 -0.0242297797672861  6.5206322600934516  2.1871334964298517
  2.1719582248819389  4.3753128138202646  2.1846264384390173
  2.1972415881339455  6.5531518504830055 -0.0070655929904981
 -0.0008582372361754  4.3489477271299144  4.3757570712801321
 -0.0660372750176697  6.5526735856858478  6.5376062514149673
  2.2072788863407906  4.3821711215654320  6.5735873208870821
  2.1929181037801251  6.5714291687251789  4.3718391572582700
  4.3653647519619101 -0.0126565151372233 -0.0232283941803917
  4.3758131630974351  2.2016260879814986  2.2070490519569623
  6.5316623657681365  0.0241489703016995  2.1663887990939621
  6.5637504769826602  2.1949098040098014  0.0176069257296204
  4.3568719075016107 -0.0035962544703561  4.3717966600723539
  4.3551388120947472  2.1922111598851561  6.5649300024507502
  6.5157245781549742 -0.0134342289047857  6.5695195269551538
  6.5471753173767882  2.2199643898116879  4.3852642482377027
  4.3867046304449726  4.3698257641376594 -0.0018882676885499
  4.3929122499842173  6.5584482534433768  2.1740415266603832
  6.5311479936021053  4.3954860892756784  2.1910864231768041
  6.5839775185797400  6.5425429023130341  0.0082194363054499
  4.3667965455800886  4.3794742049020314  4.3740863248609863
  4.3218647389229607  6.5398454928453944  6.5657519106024029
  6.5155812841962870  4.3606905331185324  6.6032366545377155
  6.5831025577263969  6.5797725397646287  4.3481326246436858
